<?xml version="1.0"?>
<VTKFile type="UnstructuredGrid" version="2.2">
  <UnstructuredGrid>
    <Piece NumberOfPoints="4949" NumberOfCells="2700">
      <Points>
        <DataArray type="Float64" NumberOfComponents="3" format="ascii">0.98 0 0 1 0 0 1 0.06666666666666667 0 1 0.06666666666666667 0.06666666666666667 0.9999999999999999 0.06666666666666665 0.03333333333333333 1 0.03333333333333333 0.03333333333333333 1 0.03333333333333333 0 0.99 0.03333333333333333 0.03333333333333333 0.99 0.03333333333333333 0 0.99 0 0 1 0 0.06666666666666667 1 0.03333333333333333 0.06666666666666667 0.9999999999999999 -1.850371707708594e-18 0.03333333333333333 0.99 0 0.03333333333333333 0.98 0.06666666666666667 0 0.99 0.06666666666666665 0.03333333333333333 0.99 0.06666666666666665 0 0.98 0.03333333333333333 0 0.98 0 0.06666666666666667 0.99 0.03333333333333333 0.06666666666666665 0.99 0 0.06666666666666665 0.98 -1.850371707708594e-18 0.03333333333333333 1 0.1333333333333333 0.06666666666666667 1 0.1 0.06666666666666667 0.9999999999999999 0.09999999999999998 0.03333333333333333 0.99 0.09999999999999999 0.03333333333333333 0.98 0.06666666666666667 0.06666666666666667 0.99 0.06666666666666665 0.06666666666666665 0.98 0.06666666666666665 0.03333333333333333 0.98 0.03333333333333333 0.03333333333333333 1 0.06666666666666667 0.1333333333333333 0.9999999999999999 0.06666666666666665 0.09999999999999998 1 0.03333333333333333 0.1 0.99 0.03333333333333333 0.09999999999999999 0.98 0.03333333333333333 0.06666666666666667 1 0.1333333333333333 0 0.9999999999999999 0.1333333333333333 0.03333333333333333 1 0.1 0 0.99 0.09999999999999999 0 0.99 0.09999999999999999 0.06666666666666665 0.96 0 0 0.97 0.03333333333333333 0.03333333333333333 0.97 0.03333333333333333 0 0.97 0 0 1 0 0.1333333333333333 1 0.03333333333333333 0.1333333333333333 0.9999999999999999 -1.850371707708594e-18 0.09999999999999998 0.99 0 0.09999999999999999 0.99 0.06666666666666665 0.09999999999999999 0.97 0 0.03333333333333333 0.98 0.1333333333333333 0 0.99 0.1333333333333333 0.03333333333333333 0.99 0.1333333333333333 0 0.98 0.1 0 1 0.1333333333333333 0.1333333333333333 0.9999999999999999 0.1333333333333333 0.09999999999999998 1 0.1 0.1 0.99 0.1 0.09999999999999999 0.98 0.1333333333333333 0.06666666666666667 0.99 0.1333333333333333 0.06666666666666665 0.98 0.1 0.06666666666666667 0.98 0.09999999999999998 0.03333333333333333 0.96 0.06666666666666667 0 0.97 0.06666666666666665 0.03333333333333333 0.97 0.06666666666666665 0 0.96 0.03333333333333333 0 0.98 0 0.1333333333333333 0.99 0.03333333333333333 0.1333333333333333 0.99 0 0.1333333333333333 0.98 -1.850371707708594e-18 0.09999999999999998 1 0.1 0.1333333333333333 0.98 0.06666666666666667 0.1333333333333333 0.99 0.06666666666666665 0.1333333333333333 0.98 0.06666666666666665 0.09999999999999998 0.98 0.03333333333333333 0.1 0.96 0 0.06666666666666667 0.97 0.03333333333333333 0.06666666666666665 0.97 0 0.06666666666666665 0.96 -1.850371707708594e-18 0.03333333333333333 1 0.2 0.06666666666666667 1 0.1666666666666667 0.06666666666666667 0.9999999999999999 0.1666666666666667 0.03333333333333333 0.99 0.1666666666666667 0.03333333333333333 0.98 0.1333333333333333 0.03333333333333333 0.99 0.1333333333333333 0.09999999999999999 0.97 0.09999999999999999 0.03333333333333333 0.96 0.06666666666666667 0.06666666666666667 0.97 0.06666666666666665 0.06666666666666665 0.96 0.06666666666666665 0.03333333333333333 0.96 0.03333333333333333 0.03333333333333333 1 0.06666666666666667 0.2 0.9999999999999999 0.06666666666666665 0.1666666666666667 1 0.03333333333333333 0.1666666666666667 0.99 0.03333333333333333 0.1666666666666667 0.98 0.03333333333333333 0.1333333333333333 0.99 0.09999999999999999 0.1333333333333333 0.97 0.03333333333333333 0.09999999999999999 0.96 0.03333333333333333 0.06666666666666667 1 0.2 0 1 0.2 0.03333333333333333 1 0.1666666666666667 0 0.99 0.1666666666666667 0 0.99 0.1666666666666667 0.06666666666666665 0.97 0.09999999999999999 0 1 0.2 0.1333333333333333 1 0.1666666666666667 0.1333333333333333 0.9999999999999999 0.1666666666666667 0.09999999999999999 0.99 0.1666666666666667 0.09999999999999999 0.98 0.1333333333333333 0.1333333333333333 0.99 0.1333333333333333 0.1333333333333333 0.98 0.1333333333333333 0.09999999999999998 0.98 0.1 0.1 0.97 0.09999999999999999 0.06666666666666665 0.9400000000000001 0 0 0.95 0.03333333333333333 0.03333333333333333 0.95 0.03333333333333333 0 0.95 0 0 1 0 0.2 1 0.03333333333333333 0.2 0.9999999999999999 -1.850371707708594e-18 0.1666666666666667 0.99 0 0.1666666666666667 0.99 0.06666666666666665 0.1666666666666667 0.97 0 0.09999999999999999 1 0.1333333333333333 0.2 0.9999999999999999 0.1333333333333333 0.1666666666666667 1 0.1 0.1666666666666667 0.99 0.1 0.1666666666666667 0.98 0.1 0.1333333333333333 0.97 0.06666666666666665 0.09999999999999999 0.95 0 0.03333333333333333 0.98 0.2 0 0.99 0.2 0.03333333333333333 0.99 0.2 0 0.98 0.1666666666666667 0 1 0.2 0.09999999999999999 0.98 0.2 0.06666666666666667 0.99 0.2 0.06666666666666667 0.98 0.1666666666666667 0.06666666666666667 0.98 0.1666666666666667 0.03333333333333333 0.96 0.1333333333333333 0 0.97 0.1333333333333333 0.03333333333333333 0.97 0.1333333333333333 0 0.96 0.1 0 0.99 0.1666666666666667 0.1333333333333333 0.97 0.1 0.09999999999999999 0.96 0.1333333333333333 0.06666666666666667 0.97 0.1333333333333333 0.06666666666666665 0.96 0.1 0.06666666666666667 0.96 0.09999999999999998 0.03333333333333333 0.9400000000000001 0.06666666666666667 0 0.95 0.06666666666666665 0.03333333333333333 0.95 0.06666666666666665 0 0.9400000000000001 0.03333333333333333 0 0.98 0 0.2 0.99 0.03333333333333333 0.2 0.9899999999999999 -1.850371707708594e-18 0.2 0.98 -1.850371707708594e-18 0.1666666666666667 1 0.1 0.2 0.98 0.06666666666666667 0.2 0.9899999999999999 0.06666666666666665 0.2 0.98 0.06666666666666665 0.1666666666666667 0.98 0.03333333333333333 0.1666666666666667 0.96 0 0.1333333333333333 0.97 0.03333333333333333 0.1333333333333333 0.97 0 0.1333333333333333 0.96 -1.850371707708594e-18 0.09999999999999998 0.99 0.1333333333333333 0.1666666666666667 0.96 0.06666666666666667 0.1333333333333333 0.97 0.06666666666666665 0.1333333333333333 0.96 0.06666666666666665 0.09999999999999998 0.96 0.03333333333333333 0.1 0.9400000000000001 0 0.06666666666666667 0.95 0.03333333333333333 0.06666666666666665 0.95 0 0.06666666666666665 0.9399999999999999 -1.850371707708594e-18 0.03333333333333333 0.98 0.2 0.03333333333333333 0.99 0.2 0.09999999999999998 0.97 0.1666666666666667 0.03333333333333333 0.96 0.1333333333333333 0.03333333333333333 1 0.2 0.2 1 0.2 0.1666666666666667 1 0.1666666666666667 0.1666666666666667 0.99 0.1666666666666667 0.1666666666666667 0.98 0.2 0.1333333333333333 0.99 0.2 0.1333333333333333 0.98 0.1666666666666667 0.1333333333333333 0.98 0.1666666666666667 0.09999999999999999 0.97 0.1333333333333333 0.09999999999999999 0.95 0.09999999999999999 0.03333333333333333 0.9400000000000001 0.06666666666666667 0.06666666666666667 0.95 0.06666666666666665 0.06666666666666665 0.9399999999999999 0.06666666666666665 0.03333333333333333 0.9400000000000001 0.03333333333333333 0.03333333333333333 0.98 0.03333333333333333 0.2 0.99 0.1 0.2 0.97 0.03333333333333333 0.1666666666666667 0.96 0.03333333333333333 0.1333333333333333 1 0.1666666666666667 0.2 0.98 0.1333333333333333 0.2 0.9899999999999999 0.1333333333333333 0.2 0.98 0.1333333333333333 0.1666666666666667 0.98 0.1 0.1666666666666667 0.97 0.09999999999999999 0.1333333333333333 0.95 0.03333333333333333 0.09999999999999999 0.9400000000000001 0.03333333333333333 0.06666666666666667 0.97 0.1666666666666667 0 0.98 0.2 0.09999999999999999 0.97 0.1666666666666667 0.06666666666666665 0.95 0.09999999999999999 0 0.99 0.2 0.1666666666666667 0.97 0.1666666666666667 0.09999999999999999 0.96 0.1333333333333333 0.1333333333333333 0.97 0.1333333333333333 0.1333333333333333 0.96 0.1333333333333333 0.09999999999999998 0.96 0.1 0.1 0.95 0.09999999999999999 0.06666666666666665 0.92 0 0 0.93 0.03333333333333333 0.03333333333333333 0.9299999999999999 0.03333333333333333 0 0.9299999999999999 0 0 0.97 0 0.1666666666666667 0.98 0.1 0.2 0.97 0.06666666666666665 0.1666666666666667 0.95 0 0.09999999999999999 0.99 0.1666666666666667 0.2 0.97 0.1 0.1666666666666667 0.96 0.1 0.1333333333333333 0.95 0.06666666666666665 0.09999999999999999 0.9299999999999999 0 0.03333333333333333 0.96 0.2 0 0.97 0.2 0.03333333333333333 0.97 0.2 0 0.96 0.1666666666666667 0 0.96 0.2 0.06666666666666667 0.97 0.2 0.06666666666666667 0.96 0.1666666666666667 0.06666666666666667 0.96 0.1666666666666667 0.03333333333333333 0.9400000000000001 0.1333333333333333 0 0.95 0.1333333333333333 0.03333333333333333 0.95 0.1333333333333333 0 0.9400000000000001 0.1 0 0.98 0.2 0.2 0.99 0.2 0.2 0.98 0.2 0.1666666666666667 0.98 0.1666666666666667 0.1666666666666667 0.97 0.1666666666666667 0.1333333333333333 0.95 0.1 0.09999999999999999 0.9400000000000001 0.1333333333333333 0.06666666666666667 0.95 0.1333333333333333 0.06666666666666665 0.9400000000000001 0.1 0.06666666666666667 0.9399999999999999 0.09999999999999998 0.03333333333333333 0.92 0.06666666666666667 0 0.9299999999999999 0.06666666666666665 0.03333333333333333 0.9299999999999999 0.06666666666666665 0 0.92 0.03333333333333333 0 0.96 0 0.2 0.97 0.03333333333333333 0.2 0.97 -1.850371707708594e-18 0.2 0.96 -1.850371707708594e-18 0.1666666666666667 0.96 0.06666666666666667 0.2 0.97 0.06666666666666665 0.2 0.96 0.06666666666666665 0.1666666666666667 0.96 0.03333333333333333 0.1666666666666667 0.9400000000000001 0 0.1333333333333333 0.95 0.03333333333333333 0.1333333333333333 0.95 0 0.1333333333333333 0.9399999999999999 -1.850371707708594e-18 0.09999999999999998 0.98 0.1666666666666667 0.2 0.97 0.1333333333333333 0.1666666666666667 0.9400000000000001 0.06666666666666667 0.1333333333333333 0.95 0.06666666666666665 0.1333333333333333 0.9399999999999999 0.06666666666666665 0.09999999999999998 0.9400000000000001 0.03333333333333333 0.1 0.92 0 0.06666666666666667 0.9299999999999999 0.03333333333333333 0.06666666666666665 0.9299999999999999 0 0.06666666666666665 0.9199999999999999 -1.850371707708594e-18 0.03333333333333333 0.96 0.2 0.03333333333333333 0.97 0.2 0.09999999999999998 0.95 0.1666666666666667 0.03333333333333333 0.9399999999999999 0.1333333333333333 0.03333333333333333 0.97 0.1666666666666667 0.1666666666666667 0.96 0.2 0.1333333333333333 0.97 0.2 0.1333333333333333 0.96 0.1666666666666667 0.1333333333333333 0.96 0.1666666666666667 0.09999999999999999 0.95 0.1333333333333333 0.09999999999999999 0.93 0.09999999999999999 0.03333333333333333 0.92 0.06666666666666667 0.06666666666666667 0.9299999999999999 0.06666666666666665 0.06666666666666665 0.9199999999999999 0.06666666666666665 0.03333333333333333 0.92 0.03333333333333333 0.03333333333333333 0.96 0.03333333333333333 0.2 0.97 0.1 0.2 0.95 0.03333333333333333 0.1666666666666667 0.9400000000000001 0.03333333333333333 0.1333333333333333 0.96 0.1333333333333333 0.2 0.97 0.1333333333333333 0.2 0.96 0.1333333333333333 0.1666666666666667 0.96 0.1 0.1666666666666667 0.95 0.09999999999999999 0.1333333333333333 0.93 0.03333333333333333 0.09999999999999999 0.92 0.03333333333333333 0.06666666666666667 0.95 0.1666666666666667 0 0.96 0.2 0.09999999999999999 0.95 0.1666666666666667 0.06666666666666665 0.9299999999999999 0.09999999999999999 0 0.97 0.2 0.1666666666666667 0.95 0.1666666666666667 0.09999999999999999 0.9400000000000001 0.1333333333333333 0.1333333333333333 0.95 0.1333333333333333 0.1333333333333333 0.9399999999999999 0.1333333333333333 0.09999999999999998 0.9400000000000001 0.1 0.1 0.9299999999999999 0.09999999999999999 0.06666666666666665 0.9 0 0 0.91 0.03333333333333333 0.03333333333333333 0.9099999999999999 0.03333333333333333 0 0.9099999999999999 0 0 0.95 0 0.1666666666666667 0.96 0.1 0.2 0.95 0.06666666666666665 0.1666666666666667 0.9299999999999999 0 0.09999999999999999 0.97 0.1666666666666667 0.2 0.95 0.1 0.1666666666666667 0.9400000000000001 0.1 0.1333333333333333 0.9299999999999999 0.06666666666666665 0.09999999999999999 0.9099999999999999 0 0.03333333333333333 0.9400000000000001 0.2 0 0.95 0.2 0.03333333333333333 0.95 0.2 0 0.9400000000000001 0.1666666666666667 0 0.9400000000000001 0.2 0.06666666666666667 0.95 0.2 0.06666666666666667 0.9400000000000001 0.1666666666666667 0.06666666666666667 0.9399999999999999 0.1666666666666667 0.03333333333333333 0.92 0.1333333333333333 0 0.9299999999999999 0.1333333333333333 0.03333333333333333 0.9299999999999999 0.1333333333333333 0 0.92 0.1 0 0.96 0.2 0.2 0.97 0.2 0.2 0.96 0.2 0.1666666666666667 0.96 0.1666666666666667 0.1666666666666667 0.95 0.1666666666666667 0.1333333333333333 0.93 0.1 0.09999999999999999 0.92 0.1333333333333333 0.06666666666666667 0.9299999999999999 0.1333333333333333 0.06666666666666665 0.92 0.1 0.06666666666666667 0.9199999999999999 0.09999999999999998 0.03333333333333333 0.9 0.06666666666666667 0 0.9099999999999999 0.06666666666666665 0.03333333333333333 0.9099999999999999 0.06666666666666665 0 0.9 0.03333333333333333 0 0.9400000000000001 0 0.2 0.9500000000000001 0.03333333333333333 0.2 0.95 -1.850371707708594e-18 0.2 0.9399999999999999 -1.850371707708594e-18 0.1666666666666667 0.9400000000000001 0.06666666666666667 0.2 0.95 0.06666666666666665 0.2 0.9399999999999999 0.06666666666666665 0.1666666666666667 0.9400000000000001 0.03333333333333333 0.1666666666666667 0.92 0 0.1333333333333333 0.9299999999999999 0.03333333333333333 0.1333333333333333 0.9299999999999999 0 0.1333333333333333 0.9199999999999999 -1.850371707708594e-18 0.09999999999999998 0.96 0.1666666666666667 0.2 0.95 0.1333333333333333 0.1666666666666667 0.92 0.06666666666666667 0.1333333333333333 0.9299999999999999 0.06666666666666665 0.1333333333333333 0.9199999999999999 0.06666666666666665 0.09999999999999998 0.92 0.03333333333333333 0.1 0.9 0 0.06666666666666667 0.9099999999999999 0.03333333333333333 0.06666666666666665 0.9099999999999999 0 0.06666666666666665 0.8999999999999999 -1.850371707708594e-18 0.03333333333333333 0.9399999999999999 0.2 0.03333333333333333 0.95 0.2 0.09999999999999998 0.93 0.1666666666666667 0.03333333333333333 0.9199999999999999 0.1333333333333333 0.03333333333333333 0.95 0.1666666666666667 0.1666666666666667 0.9400000000000001 0.2 0.1333333333333333 0.95 0.2 0.1333333333333333 0.9400000000000001 0.1666666666666667 0.1333333333333333 0.9399999999999999 0.1666666666666667 0.09999999999999999 0.9299999999999999 0.1333333333333333 0.09999999999999999 0.91 0.09999999999999999 0.03333333333333333 0.9 0.06666666666666667 0.06666666666666667 0.9099999999999999 0.06666666666666665 0.06666666666666665 0.8999999999999999 0.06666666666666665 0.03333333333333333 0.9 0.03333333333333333 0.03333333333333333 0.9400000000000001 0.03333333333333333 0.2 0.9500000000000001 0.1 0.2 0.93 0.03333333333333333 0.1666666666666667 0.92 0.03333333333333333 0.1333333333333333 0.9400000000000001 0.1333333333333333 0.2 0.95 0.1333333333333333 0.2 0.9399999999999999 0.1333333333333333 0.1666666666666667 0.9400000000000001 0.1 0.1666666666666667 0.9299999999999999 0.09999999999999999 0.1333333333333333 0.91 0.03333333333333333 0.09999999999999999 0.9 0.03333333333333333 0.06666666666666667 0.9299999999999999 0.1666666666666667 0 0.9399999999999999 0.2 0.09999999999999999 0.9299999999999999 0.1666666666666667 0.06666666666666665 0.9099999999999999 0.09999999999999999 0 0.95 0.2 0.1666666666666667 0.93 0.1666666666666667 0.09999999999999999 0.92 0.1333333333333333 0.1333333333333333 0.9299999999999999 0.1333333333333333 0.1333333333333333 0.9199999999999999 0.1333333333333333 0.09999999999999998 0.92 0.1 0.1 0.9099999999999999 0.09999999999999999 0.06666666666666665 0.88 0 0 0.89 0.03333333333333333 0.03333333333333333 0.8899999999999999 0.03333333333333333 0 0.8899999999999999 0 0 0.9299999999999999 0 0.1666666666666667 0.9400000000000001 0.1 0.2 0.9299999999999999 0.06666666666666665 0.1666666666666667 0.9099999999999999 0 0.09999999999999999 0.9500000000000001 0.1666666666666667 0.2 0.93 0.1 0.1666666666666667 0.92 0.1 0.1333333333333333 0.9099999999999999 0.06666666666666665 0.09999999999999999 0.8899999999999999 0 0.03333333333333333 0.92 0.2 0 0.9299999999999999 0.2 0.03333333333333333 0.93 0.2 0 0.92 0.1666666666666667 0 0.92 0.2 0.06666666666666667 0.93 0.2 0.06666666666666667 0.92 0.1666666666666667 0.06666666666666667 0.9199999999999999 0.1666666666666667 0.03333333333333333 0.9 0.1333333333333333 0 0.9099999999999999 0.1333333333333333 0.03333333333333333 0.9099999999999999 0.1333333333333333 0 0.9 0.1 0 0.9400000000000001 0.2 0.2 0.95 0.2 0.2 0.9399999999999999 0.2 0.1666666666666667 0.9400000000000001 0.1666666666666667 0.1666666666666667 0.9299999999999999 0.1666666666666667 0.1333333333333333 0.91 0.1 0.09999999999999999 0.9 0.1333333333333333 0.06666666666666667 0.9099999999999999 0.1333333333333333 0.06666666666666665 0.9 0.1 0.06666666666666667 0.8999999999999999 0.09999999999999998 0.03333333333333333 0.88 0.06666666666666667 0 0.8899999999999999 0.06666666666666665 0.03333333333333333 0.8899999999999999 0.06666666666666665 0 0.88 0.03333333333333333 0 0.92 0 0.2 0.9300000000000002 0.03333333333333333 0.2 0.9299999999999999 -1.850371707708594e-18 0.2 0.9199999999999999 -1.850371707708594e-18 0.1666666666666667 0.92 0.06666666666666667 0.2 0.9299999999999999 0.06666666666666665 0.2 0.9199999999999999 0.06666666666666665 0.1666666666666667 0.92 0.03333333333333333 0.1666666666666667 0.9 0 0.1333333333333333 0.9099999999999999 0.03333333333333333 0.1333333333333333 0.9099999999999999 0 0.1333333333333333 0.8999999999999999 -1.850371707708594e-18 0.09999999999999998 0.9400000000000001 0.1666666666666667 0.2 0.9299999999999999 0.1333333333333333 0.1666666666666667 0.9 0.06666666666666667 0.1333333333333333 0.9099999999999999 0.06666666666666665 0.1333333333333333 0.8999999999999999 0.06666666666666665 0.09999999999999998 0.9 0.03333333333333333 0.1 0.88 0 0.06666666666666667 0.8899999999999999 0.03333333333333333 0.06666666666666665 0.8899999999999999 0 0.06666666666666665 0.8799999999999999 -1.850371707708594e-18 0.03333333333333333 0.9199999999999999 0.2 0.03333333333333333 0.9299999999999999 0.2 0.09999999999999998 0.91 0.1666666666666667 0.03333333333333333 0.8999999999999999 0.1333333333333333 0.03333333333333333 0.93 0.1666666666666667 0.1666666666666667 0.92 0.2 0.1333333333333333 0.93 0.2 0.1333333333333333 0.92 0.1666666666666667 0.1333333333333333 0.9199999999999999 0.1666666666666667 0.09999999999999999 0.9099999999999999 0.1333333333333333 0.09999999999999999 0.89 0.09999999999999999 0.03333333333333333 0.88 0.06666666666666667 0.06666666666666667 0.8899999999999999 0.06666666666666665 0.06666666666666665 0.8799999999999999 0.06666666666666665 0.03333333333333333 0.88 0.03333333333333333 0.03333333333333333 0.92 0.03333333333333333 0.2 0.9300000000000002 0.1 0.2 0.91 0.03333333333333333 0.1666666666666667 0.9 0.03333333333333333 0.1333333333333333 0.92 0.1333333333333333 0.2 0.9299999999999999 0.1333333333333333 0.2 0.9199999999999999 0.1333333333333333 0.1666666666666667 0.92 0.1 0.1666666666666667 0.9099999999999999 0.09999999999999999 0.1333333333333333 0.89 0.03333333333333333 0.09999999999999999 0.88 0.03333333333333333 0.06666666666666667 0.9099999999999999 0.1666666666666667 0 0.9199999999999999 0.2 0.09999999999999999 0.9099999999999999 0.1666666666666667 0.06666666666666665 0.8899999999999999 0.09999999999999999 0 0.9299999999999999 0.2 0.1666666666666667 0.91 0.1666666666666667 0.09999999999999999 0.9 0.1333333333333333 0.1333333333333333 0.9099999999999999 0.1333333333333333 0.1333333333333333 0.8999999999999999 0.1333333333333333 0.09999999999999998 0.9 0.1 0.1 0.8899999999999999 0.09999999999999999 0.06666666666666665 0.86 0 0 0.87 0.03333333333333333 0.03333333333333333 0.8699999999999999 0.03333333333333333 0 0.8699999999999999 0 0 0.9099999999999999 0 0.1666666666666667 0.92 0.1 0.2 0.9099999999999999 0.06666666666666665 0.1666666666666667 0.8899999999999999 0 0.09999999999999999 0.9300000000000002 0.1666666666666667 0.2 0.91 0.1 0.1666666666666667 0.9 0.1 0.1333333333333333 0.8899999999999999 0.06666666666666665 0.09999999999999999 0.8699999999999999 0 0.03333333333333333 0.9 0.2 0 0.9099999999999999 0.2 0.03333333333333333 0.91 0.2 0 0.9 0.1666666666666667 0 0.9 0.2 0.06666666666666667 0.91 0.2 0.06666666666666667 0.9 0.1666666666666667 0.06666666666666667 0.8999999999999999 0.1666666666666667 0.03333333333333333 0.88 0.1333333333333333 0 0.8899999999999999 0.1333333333333333 0.03333333333333333 0.8899999999999999 0.1333333333333333 0 0.88 0.1 0 0.92 0.2 0.2 0.9299999999999999 0.2 0.2 0.9199999999999999 0.2 0.1666666666666667 0.92 0.1666666666666667 0.1666666666666667 0.9099999999999999 0.1666666666666667 0.1333333333333333 0.89 0.1 0.09999999999999999 0.88 0.1333333333333333 0.06666666666666667 0.8899999999999999 0.1333333333333333 0.06666666666666665 0.88 0.1 0.06666666666666667 0.8799999999999999 0.09999999999999998 0.03333333333333333 0.86 0.06666666666666667 0 0.8699999999999999 0.06666666666666665 0.03333333333333333 0.8699999999999999 0.06666666666666665 0 0.86 0.03333333333333333 0 0.9 0 0.2 0.9100000000000001 0.03333333333333333 0.2 0.9099999999999999 -1.850371707708594e-18 0.2 0.8999999999999999 -1.850371707708594e-18 0.1666666666666667 0.9 0.06666666666666667 0.2 0.9099999999999999 0.06666666666666665 0.2 0.8999999999999999 0.06666666666666665 0.1666666666666667 0.9 0.03333333333333333 0.1666666666666667 0.88 0 0.1333333333333333 0.8899999999999999 0.03333333333333333 0.1333333333333333 0.8899999999999999 0 0.1333333333333333 0.8799999999999999 -1.850371707708594e-18 0.09999999999999998 0.92 0.1666666666666667 0.2 0.9099999999999999 0.1333333333333333 0.1666666666666667 0.88 0.06666666666666667 0.1333333333333333 0.8899999999999999 0.06666666666666665 0.1333333333333333 0.8799999999999999 0.06666666666666665 0.09999999999999998 0.88 0.03333333333333333 0.1 0.86 0 0.06666666666666667 0.8699999999999999 0.03333333333333333 0.06666666666666665 0.8699999999999999 0 0.06666666666666665 0.8599999999999999 -1.850371707708594e-18 0.03333333333333333 0.8999999999999999 0.2 0.03333333333333333 0.9099999999999999 0.2 0.09999999999999998 0.89 0.1666666666666667 0.03333333333333333 0.8799999999999999 0.1333333333333333 0.03333333333333333 0.91 0.1666666666666667 0.1666666666666667 0.9 0.2 0.1333333333333333 0.91 0.2 0.1333333333333333 0.9 0.1666666666666667 0.1333333333333333 0.8999999999999999 0.1666666666666667 0.09999999999999999 0.8899999999999999 0.1333333333333333 0.09999999999999999 0.87 0.09999999999999999 0.03333333333333333 0.86 0.06666666666666667 0.06666666666666667 0.8699999999999999 0.06666666666666665 0.06666666666666665 0.8599999999999999 0.06666666666666665 0.03333333333333333 0.86 0.03333333333333333 0.03333333333333333 0.9 0.03333333333333333 0.2 0.9100000000000001 0.1 0.2 0.89 0.03333333333333333 0.1666666666666667 0.88 0.03333333333333333 0.1333333333333333 0.9 0.1333333333333333 0.2 0.9099999999999999 0.1333333333333333 0.2 0.8999999999999999 0.1333333333333333 0.1666666666666667 0.9 0.1 0.1666666666666667 0.8899999999999999 0.09999999999999999 0.1333333333333333 0.87 0.03333333333333333 0.09999999999999999 0.86 0.03333333333333333 0.06666666666666667 0.8899999999999999 0.1666666666666667 0 0.8999999999999999 0.2 0.09999999999999999 0.8899999999999999 0.1666666666666667 0.06666666666666665 0.8699999999999999 0.09999999999999999 0 0.9099999999999999 0.2 0.1666666666666667 0.89 0.1666666666666667 0.09999999999999999 0.88 0.1333333333333333 0.1333333333333333 0.8899999999999999 0.1333333333333333 0.1333333333333333 0.8799999999999999 0.1333333333333333 0.09999999999999998 0.88 0.1 0.1 0.8699999999999999 0.09999999999999999 0.06666666666666665 0.84 0 0 0.85 0.03333333333333333 0.03333333333333333 0.8499999999999999 0.03333333333333333 0 0.8499999999999999 0 0 0.8899999999999999 0 0.1666666666666667 0.9 0.1 0.2 0.8899999999999999 0.06666666666666665 0.1666666666666667 0.8699999999999999 0 0.09999999999999999 0.9100000000000001 0.1666666666666667 0.2 0.89 0.1 0.1666666666666667 0.88 0.1 0.1333333333333333 0.8699999999999999 0.06666666666666665 0.09999999999999999 0.8499999999999999 0 0.03333333333333333 0.88 0.2 0 0.8899999999999999 0.2 0.03333333333333333 0.89 0.2 0 0.88 0.1666666666666667 0 0.88 0.2 0.06666666666666667 0.89 0.2 0.06666666666666667 0.88 0.1666666666666667 0.06666666666666667 0.8799999999999999 0.1666666666666667 0.03333333333333333 0.86 0.1333333333333333 0 0.8699999999999999 0.1333333333333333 0.03333333333333333 0.8699999999999999 0.1333333333333333 0 0.86 0.1 0 0.9 0.2 0.2 0.9099999999999999 0.2 0.2 0.8999999999999999 0.2 0.1666666666666667 0.9 0.1666666666666667 0.1666666666666667 0.8899999999999999 0.1666666666666667 0.1333333333333333 0.87 0.1 0.09999999999999999 0.86 0.1333333333333333 0.06666666666666667 0.8699999999999999 0.1333333333333333 0.06666666666666665 0.86 0.1 0.06666666666666667 0.8599999999999999 0.09999999999999998 0.03333333333333333 0.84 0.06666666666666667 0 0.8499999999999999 0.06666666666666665 0.03333333333333333 0.8499999999999999 0.06666666666666665 0 0.84 0.03333333333333333 0 0.88 0 0.2 0.8900000000000001 0.03333333333333333 0.2 0.8899999999999999 -1.850371707708594e-18 0.2 0.8799999999999999 -1.850371707708594e-18 0.1666666666666667 0.88 0.06666666666666667 0.2 0.8899999999999999 0.06666666666666665 0.2 0.8799999999999999 0.06666666666666665 0.1666666666666667 0.88 0.03333333333333333 0.1666666666666667 0.86 0 0.1333333333333333 0.8699999999999999 0.03333333333333333 0.1333333333333333 0.8699999999999999 0 0.1333333333333333 0.8599999999999999 -1.850371707708594e-18 0.09999999999999998 0.9 0.1666666666666667 0.2 0.8899999999999999 0.1333333333333333 0.1666666666666667 0.86 0.06666666666666667 0.1333333333333333 0.8699999999999999 0.06666666666666665 0.1333333333333333 0.8599999999999999 0.06666666666666665 0.09999999999999998 0.86 0.03333333333333333 0.1 0.84 0 0.06666666666666667 0.8499999999999999 0.03333333333333333 0.06666666666666665 0.8499999999999999 0 0.06666666666666665 0.8399999999999999 -1.850371707708594e-18 0.03333333333333333 0.8799999999999999 0.2 0.03333333333333333 0.8899999999999999 0.2 0.09999999999999998 0.87 0.1666666666666667 0.03333333333333333 0.8599999999999999 0.1333333333333333 0.03333333333333333 0.89 0.1666666666666667 0.1666666666666667 0.88 0.2 0.1333333333333333 0.89 0.2 0.1333333333333333 0.88 0.1666666666666667 0.1333333333333333 0.8799999999999999 0.1666666666666667 0.09999999999999999 0.8699999999999999 0.1333333333333333 0.09999999999999999 0.85 0.09999999999999999 0.03333333333333333 0.84 0.06666666666666667 0.06666666666666667 0.8499999999999999 0.06666666666666665 0.06666666666666665 0.8399999999999999 0.06666666666666665 0.03333333333333333 0.84 0.03333333333333333 0.03333333333333333 0.88 0.03333333333333333 0.2 0.8900000000000001 0.1 0.2 0.87 0.03333333333333333 0.1666666666666667 0.86 0.03333333333333333 0.1333333333333333 0.88 0.1333333333333333 0.2 0.8899999999999999 0.1333333333333333 0.2 0.8799999999999999 0.1333333333333333 0.1666666666666667 0.88 0.1 0.1666666666666667 0.8699999999999999 0.09999999999999999 0.1333333333333333 0.85 0.03333333333333333 0.09999999999999999 0.84 0.03333333333333333 0.06666666666666667 0.8699999999999999 0.1666666666666667 0 0.8799999999999999 0.2 0.09999999999999999 0.8699999999999999 0.1666666666666667 0.06666666666666665 0.8499999999999999 0.09999999999999999 0 0.8899999999999999 0.2 0.1666666666666667 0.87 0.1666666666666667 0.09999999999999999 0.86 0.1333333333333333 0.1333333333333333 0.8699999999999999 0.1333333333333333 0.1333333333333333 0.8599999999999999 0.1333333333333333 0.09999999999999998 0.86 0.1 0.1 0.8499999999999999 0.09999999999999999 0.06666666666666665 0.8200000000000001 0 0 0.8300000000000001 0.03333333333333333 0.03333333333333333 0.83 0.03333333333333333 0 0.83 0 0 0.8699999999999999 0 0.1666666666666667 0.88 0.1 0.2 0.8699999999999999 0.06666666666666665 0.1666666666666667 0.8499999999999999 0 0.09999999999999999 0.8900000000000001 0.1666666666666667 0.2 0.87 0.1 0.1666666666666667 0.86 0.1 0.1333333333333333 0.8499999999999999 0.06666666666666665 0.09999999999999999 0.83 0 0.03333333333333333 0.86 0.2 0 0.8699999999999999 0.2 0.03333333333333333 0.87 0.2 0 0.86 0.1666666666666667 0 0.86 0.2 0.06666666666666667 0.87 0.2 0.06666666666666667 0.86 0.1666666666666667 0.06666666666666667 0.8599999999999999 0.1666666666666667 0.03333333333333333 0.84 0.1333333333333333 0 0.8499999999999999 0.1333333333333333 0.03333333333333333 0.8499999999999999 0.1333333333333333 0 0.84 0.1 0 0.88 0.2 0.2 0.8899999999999999 0.2 0.2 0.8799999999999999 0.2 0.1666666666666667 0.88 0.1666666666666667 0.1666666666666667 0.8699999999999999 0.1666666666666667 0.1333333333333333 0.85 0.1 0.09999999999999999 0.84 0.1333333333333333 0.06666666666666667 0.8499999999999999 0.1333333333333333 0.06666666666666665 0.84 0.1 0.06666666666666667 0.8399999999999999 0.09999999999999998 0.03333333333333333 0.8200000000000001 0.06666666666666667 0 0.83 0.06666666666666665 0.03333333333333333 0.83 0.06666666666666665 0 0.8200000000000001 0.03333333333333333 0 0.86 0 0.2 0.8700000000000001 0.03333333333333333 0.2 0.8699999999999999 -1.850371707708594e-18 0.2 0.8599999999999999 -1.850371707708594e-18 0.1666666666666667 0.86 0.06666666666666667 0.2 0.8699999999999999 0.06666666666666665 0.2 0.8599999999999999 0.06666666666666665 0.1666666666666667 0.86 0.03333333333333333 0.1666666666666667 0.84 0 0.1333333333333333 0.8499999999999999 0.03333333333333333 0.1333333333333333 0.8499999999999999 0 0.1333333333333333 0.8399999999999999 -1.850371707708594e-18 0.09999999999999998 0.88 0.1666666666666667 0.2 0.8699999999999999 0.1333333333333333 0.1666666666666667 0.84 0.06666666666666667 0.1333333333333333 0.8499999999999999 0.06666666666666665 0.1333333333333333 0.8399999999999999 0.06666666666666665 0.09999999999999998 0.84 0.03333333333333333 0.1 0.8200000000000001 0 0.06666666666666667 0.83 0.03333333333333333 0.06666666666666665 0.83 0 0.06666666666666665 0.8200000000000001 -1.850371707708594e-18 0.03333333333333333 0.8599999999999999 0.2 0.03333333333333333 0.8699999999999999 0.2 0.09999999999999998 0.85 0.1666666666666667 0.03333333333333333 0.8399999999999999 0.1333333333333333 0.03333333333333333 0.87 0.1666666666666667 0.1666666666666667 0.86 0.2 0.1333333333333333 0.87 0.2 0.1333333333333333 0.86 0.1666666666666667 0.1333333333333333 0.8599999999999999 0.1666666666666667 0.09999999999999999 0.8499999999999999 0.1333333333333333 0.09999999999999999 0.8300000000000001 0.09999999999999999 0.03333333333333333 0.8200000000000001 0.06666666666666667 0.06666666666666667 0.83 0.06666666666666665 0.06666666666666665 0.8200000000000001 0.06666666666666665 0.03333333333333333 0.8200000000000001 0.03333333333333333 0.03333333333333333 0.86 0.03333333333333333 0.2 0.8700000000000001 0.1 0.2 0.85 0.03333333333333333 0.1666666666666667 0.84 0.03333333333333333 0.1333333333333333 0.86 0.1333333333333333 0.2 0.8699999999999999 0.1333333333333333 0.2 0.8599999999999999 0.1333333333333333 0.1666666666666667 0.86 0.1 0.1666666666666667 0.8499999999999999 0.09999999999999999 0.1333333333333333 0.8300000000000001 0.03333333333333333 0.09999999999999999 0.8200000000000001 0.03333333333333333 0.06666666666666667 0.8499999999999999 0.1666666666666667 0 0.8599999999999999 0.2 0.09999999999999999 0.8499999999999999 0.1666666666666667 0.06666666666666665 0.83 0.09999999999999999 0 0.8699999999999999 0.2 0.1666666666666667 0.85 0.1666666666666667 0.09999999999999999 0.84 0.1333333333333333 0.1333333333333333 0.8499999999999999 0.1333333333333333 0.1333333333333333 0.8399999999999999 0.1333333333333333 0.09999999999999998 0.84 0.1 0.1 0.83 0.09999999999999999 0.06666666666666665 0.8 0 0 0.8100000000000001 0.03333333333333333 0.03333333333333333 0.8100000000000001 0.03333333333333333 0 0.8100000000000001 0 0 0.8499999999999999 0 0.1666666666666667 0.86 0.1 0.2 0.8499999999999999 0.06666666666666665 0.1666666666666667 0.83 0 0.09999999999999999 0.8700000000000001 0.1666666666666667 0.2 0.85 0.1 0.1666666666666667 0.84 0.1 0.1333333333333333 0.83 0.06666666666666665 0.09999999999999999 0.8100000000000001 0 0.03333333333333333 0.84 0.2 0 0.8499999999999999 0.2 0.03333333333333333 0.85 0.2 0 0.84 0.1666666666666667 0 0.84 0.2 0.06666666666666667 0.85 0.2 0.06666666666666667 0.84 0.1666666666666667 0.06666666666666667 0.8399999999999999 0.1666666666666667 0.03333333333333333 0.8200000000000001 0.1333333333333333 0 0.83 0.1333333333333333 0.03333333333333333 0.83 0.1333333333333333 0 0.8200000000000001 0.1 0 0.86 0.2 0.2 0.8699999999999999 0.2 0.2 0.8599999999999999 0.2 0.1666666666666667 0.86 0.1666666666666667 0.1666666666666667 0.8499999999999999 0.1666666666666667 0.1333333333333333 0.8300000000000001 0.1 0.09999999999999999 0.8200000000000001 0.1333333333333333 0.06666666666666667 0.83 0.1333333333333333 0.06666666666666665 0.8200000000000001 0.1 0.06666666666666667 0.8200000000000001 0.09999999999999998 0.03333333333333333 0.8 0.06666666666666667 0 0.8100000000000001 0.06666666666666665 0.03333333333333333 0.8100000000000001 0.06666666666666665 0 0.8 0.03333333333333333 0 0.84 0 0.2 0.8500000000000001 0.03333333333333333 0.2 0.8499999999999999 -1.850371707708594e-18 0.2 0.8399999999999999 -1.850371707708594e-18 0.1666666666666667 0.84 0.06666666666666667 0.2 0.8499999999999999 0.06666666666666665 0.2 0.8399999999999999 0.06666666666666665 0.1666666666666667 0.84 0.03333333333333333 0.1666666666666667 0.8200000000000001 0 0.1333333333333333 0.83 0.03333333333333333 0.1333333333333333 0.83 0 0.1333333333333333 0.8200000000000001 -1.850371707708594e-18 0.09999999999999998 0.86 0.1666666666666667 0.2 0.8499999999999999 0.1333333333333333 0.1666666666666667 0.8200000000000001 0.06666666666666667 0.1333333333333333 0.83 0.06666666666666665 0.1333333333333333 0.8200000000000001 0.06666666666666665 0.09999999999999998 0.8200000000000001 0.03333333333333333 0.1 0.8 0 0.06666666666666667 0.8100000000000001 0.03333333333333333 0.06666666666666665 0.8100000000000001 0 0.06666666666666665 0.8 -1.850371707708594e-18 0.03333333333333333 0.8399999999999999 0.2 0.03333333333333333 0.8499999999999999 0.2 0.09999999999999998 0.8300000000000001 0.1666666666666667 0.03333333333333333 0.8200000000000001 0.1333333333333333 0.03333333333333333 0.85 0.1666666666666667 0.1666666666666667 0.84 0.2 0.1333333333333333 0.85 0.2 0.1333333333333333 0.84 0.1666666666666667 0.1333333333333333 0.8399999999999999 0.1666666666666667 0.09999999999999999 0.83 0.1333333333333333 0.09999999999999999 0.8100000000000001 0.09999999999999999 0.03333333333333333 0.8 0.06666666666666667 0.06666666666666667 0.8100000000000001 0.06666666666666665 0.06666666666666665 0.8 0.06666666666666665 0.03333333333333333 0.8 0.03333333333333333 0.03333333333333333 0.84 0.03333333333333333 0.2 0.8500000000000001 0.1 0.2 0.8300000000000001 0.03333333333333333 0.1666666666666667 0.8200000000000001 0.03333333333333333 0.1333333333333333 0.84 0.1333333333333333 0.2 0.8499999999999999 0.1333333333333333 0.2 0.8399999999999999 0.1333333333333333 0.1666666666666667 0.84 0.1 0.1666666666666667 0.83 0.09999999999999999 0.1333333333333333 0.8100000000000001 0.03333333333333333 0.09999999999999999 0.8 0.03333333333333333 0.06666666666666667 0.83 0.1666666666666667 0 0.8399999999999999 0.2 0.09999999999999999 0.83 0.1666666666666667 0.06666666666666665 0.8100000000000001 0.09999999999999999 0 0.8499999999999999 0.2 0.1666666666666667 0.8300000000000001 0.1666666666666667 0.09999999999999999 0.8200000000000001 0.1333333333333333 0.1333333333333333 0.83 0.1333333333333333 0.1333333333333333 0.8200000000000001 0.1333333333333333 0.09999999999999998 0.8200000000000001 0.1 0.1 0.8100000000000001 0.09999999999999999 0.06666666666666665 0.78 0 0 0.79 0.03333333333333333 0.03333333333333333 0.79 0.03333333333333333 0 0.79 0 0 0.83 0 0.1666666666666667 0.84 0.1 0.2 0.83 0.06666666666666665 0.1666666666666667 0.8100000000000001 0 0.09999999999999999 0.8500000000000001 0.1666666666666667 0.2 0.8300000000000001 0.1 0.1666666666666667 0.8200000000000001 0.1 0.1333333333333333 0.8100000000000001 0.06666666666666665 0.09999999999999999 0.79 0 0.03333333333333333 0.8200000000000001 0.2 0 0.83 0.2 0.03333333333333333 0.8300000000000001 0.2 0 0.8200000000000001 0.1666666666666667 0 0.8200000000000001 0.2 0.06666666666666667 0.8300000000000001 0.2 0.06666666666666667 0.8200000000000001 0.1666666666666667 0.06666666666666667 0.8200000000000001 0.1666666666666667 0.03333333333333333 0.8 0.1333333333333333 0 0.8100000000000001 0.1333333333333333 0.03333333333333333 0.8100000000000001 0.1333333333333333 0 0.8 0.1 0 0.84 0.2 0.2 0.8499999999999999 0.2 0.2 0.8399999999999999 0.2 0.1666666666666667 0.84 0.1666666666666667 0.1666666666666667 0.83 0.1666666666666667 0.1333333333333333 0.8100000000000001 0.1 0.09999999999999999 0.8 0.1333333333333333 0.06666666666666667 0.8100000000000001 0.1333333333333333 0.06666666666666665 0.8 0.1 0.06666666666666667 0.8 0.09999999999999998 0.03333333333333333 0.78 0.06666666666666667 0 0.79 0.06666666666666665 0.03333333333333333 0.79 0.06666666666666665 0 0.78 0.03333333333333333 0 0.8200000000000001 0 0.2 0.8300000000000001 0.03333333333333333 0.2 0.83 -1.850371707708594e-18 0.2 0.8200000000000001 -1.850371707708594e-18 0.1666666666666667 0.8200000000000001 0.06666666666666667 0.2 0.83 0.06666666666666665 0.2 0.8200000000000001 0.06666666666666665 0.1666666666666667 0.8200000000000001 0.03333333333333333 0.1666666666666667 0.8 0 0.1333333333333333 0.8100000000000001 0.03333333333333333 0.1333333333333333 0.8100000000000001 0 0.1333333333333333 0.8 -1.850371707708594e-18 0.09999999999999998 0.84 0.1666666666666667 0.2 0.83 0.1333333333333333 0.1666666666666667 0.8 0.06666666666666667 0.1333333333333333 0.8100000000000001 0.06666666666666665 0.1333333333333333 0.8 0.06666666666666665 0.09999999999999998 0.8 0.03333333333333333 0.1 0.78 0 0.06666666666666667 0.79 0.03333333333333333 0.06666666666666665 0.79 0 0.06666666666666665 0.78 -1.850371707708594e-18 0.03333333333333333 0.8200000000000001 0.2 0.03333333333333333 0.83 0.2 0.09999999999999998 0.8100000000000001 0.1666666666666667 0.03333333333333333 0.8 0.1333333333333333 0.03333333333333333 0.8300000000000001 0.1666666666666667 0.1666666666666667 0.8200000000000001 0.2 0.1333333333333333 0.8300000000000001 0.2 0.1333333333333333 0.8200000000000001 0.1666666666666667 0.1333333333333333 0.8200000000000001 0.1666666666666667 0.09999999999999999 0.8100000000000001 0.1333333333333333 0.09999999999999999 0.79 0.09999999999999999 0.03333333333333333 0.78 0.06666666666666667 0.06666666666666667 0.79 0.06666666666666665 0.06666666666666665 0.78 0.06666666666666665 0.03333333333333333 0.78 0.03333333333333333 0.03333333333333333 0.8200000000000001 0.03333333333333333 0.2 0.8300000000000001 0.1 0.2 0.8100000000000001 0.03333333333333333 0.1666666666666667 0.8 0.03333333333333333 0.1333333333333333 0.8200000000000001 0.1333333333333333 0.2 0.83 0.1333333333333333 0.2 0.8200000000000001 0.1333333333333333 0.1666666666666667 0.8200000000000001 0.1 0.1666666666666667 0.8100000000000001 0.09999999999999999 0.1333333333333333 0.79 0.03333333333333333 0.09999999999999999 0.78 0.03333333333333333 0.06666666666666667 0.8100000000000001 0.1666666666666667 0 0.8200000000000001 0.2 0.09999999999999999 0.8100000000000001 0.1666666666666667 0.06666666666666665 0.79 0.09999999999999999 0 0.83 0.2 0.1666666666666667 0.8100000000000001 0.1666666666666667 0.09999999999999999 0.8 0.1333333333333333 0.1333333333333333 0.8100000000000001 0.1333333333333333 0.1333333333333333 0.8 0.1333333333333333 0.09999999999999998 0.8 0.1 0.1 0.79 0.09999999999999999 0.06666666666666665 0.76 0 0 0.77 0.03333333333333333 0.03333333333333333 0.77 0.03333333333333333 0 0.77 0 0 0.8100000000000001 0 0.1666666666666667 0.8200000000000001 0.1 0.2 0.8100000000000001 0.06666666666666665 0.1666666666666667 0.79 0 0.09999999999999999 0.8300000000000001 0.1666666666666667 0.2 0.8100000000000001 0.1 0.1666666666666667 0.8 0.1 0.1333333333333333 0.79 0.06666666666666665 0.09999999999999999 0.77 0 0.03333333333333333 0.8 0.2 0 0.8100000000000001 0.2 0.03333333333333333 0.8100000000000001 0.2 0 0.8 0.1666666666666667 0 0.8 0.2 0.06666666666666667 0.8100000000000001 0.2 0.06666666666666667 0.8 0.1666666666666667 0.06666666666666667 0.8 0.1666666666666667 0.03333333333333333 0.78 0.1333333333333333 0 0.79 0.1333333333333333 0.03333333333333333 0.79 0.1333333333333333 0 0.78 0.1 0 0.8200000000000001 0.2 0.2 0.83 0.2 0.2 0.8200000000000001 0.2 0.1666666666666667 0.8200000000000001 0.1666666666666667 0.1666666666666667 0.8100000000000001 0.1666666666666667 0.1333333333333333 0.79 0.1 0.09999999999999999 0.78 0.1333333333333333 0.06666666666666667 0.79 0.1333333333333333 0.06666666666666665 0.78 0.1 0.06666666666666667 0.78 0.09999999999999998 0.03333333333333333 0.76 0.06666666666666667 0 0.77 0.06666666666666665 0.03333333333333333 0.77 0.06666666666666665 0 0.76 0.03333333333333333 0 0.8 0 0.2 0.8100000000000001 0.03333333333333333 0.2 0.8100000000000001 -1.850371707708594e-18 0.2 0.8 -1.850371707708594e-18 0.1666666666666667 0.8 0.06666666666666667 0.2 0.8100000000000001 0.06666666666666665 0.2 0.8 0.06666666666666665 0.1666666666666667 0.8 0.03333333333333333 0.1666666666666667 0.78 0 0.1333333333333333 0.79 0.03333333333333333 0.1333333333333333 0.79 0 0.1333333333333333 0.78 -1.850371707708594e-18 0.09999999999999998 0.8200000000000001 0.1666666666666667 0.2 0.8100000000000001 0.1333333333333333 0.1666666666666667 0.78 0.06666666666666667 0.1333333333333333 0.79 0.06666666666666665 0.1333333333333333 0.78 0.06666666666666665 0.09999999999999998 0.78 0.03333333333333333 0.1 0.76 0 0.06666666666666667 0.77 0.03333333333333333 0.06666666666666665 0.77 0 0.06666666666666665 0.76 -1.850371707708594e-18 0.03333333333333333 0.8 0.2 0.03333333333333333 0.8100000000000001 0.2 0.09999999999999998 0.79 0.1666666666666667 0.03333333333333333 0.78 0.1333333333333333 0.03333333333333333 0.8100000000000001 0.1666666666666667 0.1666666666666667 0.8 0.2 0.1333333333333333 0.8100000000000001 0.2 0.1333333333333333 0.8 0.1666666666666667 0.1333333333333333 0.8 0.1666666666666667 0.09999999999999999 0.79 0.1333333333333333 0.09999999999999999 0.77 0.09999999999999999 0.03333333333333333 0.76 0.06666666666666667 0.06666666666666667 0.77 0.06666666666666665 0.06666666666666665 0.76 0.06666666666666665 0.03333333333333333 0.76 0.03333333333333333 0.03333333333333333 0.8 0.03333333333333333 0.2 0.8100000000000001 0.1 0.2 0.79 0.03333333333333333 0.1666666666666667 0.78 0.03333333333333333 0.1333333333333333 0.8 0.1333333333333333 0.2 0.8100000000000001 0.1333333333333333 0.2 0.8 0.1333333333333333 0.1666666666666667 0.8 0.1 0.1666666666666667 0.79 0.09999999999999999 0.1333333333333333 0.77 0.03333333333333333 0.09999999999999999 0.76 0.03333333333333333 0.06666666666666667 0.79 0.1666666666666667 0 0.8 0.2 0.09999999999999999 0.79 0.1666666666666667 0.06666666666666665 0.77 0.09999999999999999 0 0.8100000000000001 0.2 0.1666666666666667 0.79 0.1666666666666667 0.09999999999999999 0.78 0.1333333333333333 0.1333333333333333 0.79 0.1333333333333333 0.1333333333333333 0.78 0.1333333333333333 0.09999999999999998 0.78 0.1 0.1 0.77 0.09999999999999999 0.06666666666666665 0.74 0 0 0.75 0.03333333333333333 0.03333333333333333 0.75 0.03333333333333333 0 0.75 0 0 0.79 0 0.1666666666666667 0.8 0.1 0.2 0.79 0.06666666666666665 0.1666666666666667 0.77 0 0.09999999999999999 0.8100000000000001 0.1666666666666667 0.2 0.79 0.1 0.1666666666666667 0.78 0.1 0.1333333333333333 0.77 0.06666666666666665 0.09999999999999999 0.75 0 0.03333333333333333 0.78 0.2 0 0.79 0.2 0.03333333333333333 0.79 0.2 0 0.78 0.1666666666666667 0 0.78 0.2 0.06666666666666667 0.79 0.2 0.06666666666666667 0.78 0.1666666666666667 0.06666666666666667 0.78 0.1666666666666667 0.03333333333333333 0.76 0.1333333333333333 0 0.77 0.1333333333333333 0.03333333333333333 0.77 0.1333333333333333 0 0.76 0.1 0 0.8 0.2 0.2 0.8100000000000001 0.2 0.2 0.8 0.2 0.1666666666666667 0.8 0.1666666666666667 0.1666666666666667 0.79 0.1666666666666667 0.1333333333333333 0.77 0.1 0.09999999999999999 0.76 0.1333333333333333 0.06666666666666667 0.77 0.1333333333333333 0.06666666666666665 0.76 0.1 0.06666666666666667 0.76 0.09999999999999998 0.03333333333333333 0.74 0.06666666666666667 0 0.75 0.06666666666666665 0.03333333333333333 0.75 0.06666666666666665 0 0.74 0.03333333333333333 0 0.78 0 0.2 0.79 0.03333333333333333 0.2 0.79 -1.850371707708594e-18 0.2 0.78 -1.850371707708594e-18 0.1666666666666667 0.78 0.06666666666666667 0.2 0.79 0.06666666666666665 0.2 0.78 0.06666666666666665 0.1666666666666667 0.78 0.03333333333333333 0.1666666666666667 0.76 0 0.1333333333333333 0.77 0.03333333333333333 0.1333333333333333 0.77 0 0.1333333333333333 0.76 -1.850371707708594e-18 0.09999999999999998 0.8 0.1666666666666667 0.2 0.79 0.1333333333333333 0.1666666666666667 0.76 0.06666666666666667 0.1333333333333333 0.77 0.06666666666666665 0.1333333333333333 0.76 0.06666666666666665 0.09999999999999998 0.76 0.03333333333333333 0.1 0.74 0 0.06666666666666667 0.75 0.03333333333333333 0.06666666666666665 0.75 0 0.06666666666666665 0.74 -1.850371707708594e-18 0.03333333333333333 0.78 0.2 0.03333333333333333 0.79 0.2 0.09999999999999998 0.77 0.1666666666666667 0.03333333333333333 0.76 0.1333333333333333 0.03333333333333333 0.79 0.1666666666666667 0.1666666666666667 0.78 0.2 0.1333333333333333 0.79 0.2 0.1333333333333333 0.78 0.1666666666666667 0.1333333333333333 0.78 0.1666666666666667 0.09999999999999999 0.77 0.1333333333333333 0.09999999999999999 0.75 0.09999999999999999 0.03333333333333333 0.74 0.06666666666666667 0.06666666666666667 0.75 0.06666666666666665 0.06666666666666665 0.74 0.06666666666666665 0.03333333333333333 0.74 0.03333333333333333 0.03333333333333333 0.78 0.03333333333333333 0.2 0.79 0.1 0.2 0.77 0.03333333333333333 0.1666666666666667 0.76 0.03333333333333333 0.1333333333333333 0.78 0.1333333333333333 0.2 0.79 0.1333333333333333 0.2 0.78 0.1333333333333333 0.1666666666666667 0.78 0.1 0.1666666666666667 0.77 0.09999999999999999 0.1333333333333333 0.75 0.03333333333333333 0.09999999999999999 0.74 0.03333333333333333 0.06666666666666667 0.77 0.1666666666666667 0 0.78 0.2 0.09999999999999999 0.77 0.1666666666666667 0.06666666666666665 0.75 0.09999999999999999 0 0.79 0.2 0.1666666666666667 0.77 0.1666666666666667 0.09999999999999999 0.76 0.1333333333333333 0.1333333333333333 0.77 0.1333333333333333 0.1333333333333333 0.76 0.1333333333333333 0.09999999999999998 0.76 0.1 0.1 0.75 0.09999999999999999 0.06666666666666665 0.72 0 0 0.73 0.03333333333333333 0.03333333333333333 0.73 0.03333333333333333 0 0.73 0 0 0.77 0 0.1666666666666667 0.78 0.1 0.2 0.77 0.06666666666666665 0.1666666666666667 0.75 0 0.09999999999999999 0.79 0.1666666666666667 0.2 0.77 0.1 0.1666666666666667 0.76 0.1 0.1333333333333333 0.75 0.06666666666666665 0.09999999999999999 0.73 0 0.03333333333333333 0.76 0.2 0 0.77 0.2 0.03333333333333333 0.77 0.2 0 0.76 0.1666666666666667 0 0.76 0.2 0.06666666666666667 0.77 0.2 0.06666666666666667 0.76 0.1666666666666667 0.06666666666666667 0.76 0.1666666666666667 0.03333333333333333 0.74 0.1333333333333333 0 0.75 0.1333333333333333 0.03333333333333333 0.75 0.1333333333333333 0 0.74 0.1 0 0.78 0.2 0.2 0.79 0.2 0.2 0.78 0.2 0.1666666666666667 0.78 0.1666666666666667 0.1666666666666667 0.77 0.1666666666666667 0.1333333333333333 0.75 0.1 0.09999999999999999 0.74 0.1333333333333333 0.06666666666666667 0.75 0.1333333333333333 0.06666666666666665 0.74 0.1 0.06666666666666667 0.74 0.09999999999999998 0.03333333333333333 0.72 0.06666666666666667 0 0.73 0.06666666666666665 0.03333333333333333 0.73 0.06666666666666665 0 0.72 0.03333333333333333 0 0.76 0 0.2 0.77 0.03333333333333333 0.2 0.77 -1.850371707708594e-18 0.2 0.76 -1.850371707708594e-18 0.1666666666666667 0.76 0.06666666666666667 0.2 0.77 0.06666666666666665 0.2 0.76 0.06666666666666665 0.1666666666666667 0.76 0.03333333333333333 0.1666666666666667 0.74 0 0.1333333333333333 0.75 0.03333333333333333 0.1333333333333333 0.75 0 0.1333333333333333 0.74 -1.850371707708594e-18 0.09999999999999998 0.78 0.1666666666666667 0.2 0.77 0.1333333333333333 0.1666666666666667 0.74 0.06666666666666667 0.1333333333333333 0.75 0.06666666666666665 0.1333333333333333 0.74 0.06666666666666665 0.09999999999999998 0.74 0.03333333333333333 0.1 0.72 0 0.06666666666666667 0.73 0.03333333333333333 0.06666666666666665 0.73 0 0.06666666666666665 0.72 -1.850371707708594e-18 0.03333333333333333 0.76 0.2 0.03333333333333333 0.77 0.2 0.09999999999999998 0.75 0.1666666666666667 0.03333333333333333 0.74 0.1333333333333333 0.03333333333333333 0.77 0.1666666666666667 0.1666666666666667 0.76 0.2 0.1333333333333333 0.77 0.2 0.1333333333333333 0.76 0.1666666666666667 0.1333333333333333 0.76 0.1666666666666667 0.09999999999999999 0.75 0.1333333333333333 0.09999999999999999 0.73 0.09999999999999999 0.03333333333333333 0.72 0.06666666666666667 0.06666666666666667 0.73 0.06666666666666665 0.06666666666666665 0.72 0.06666666666666665 0.03333333333333333 0.72 0.03333333333333333 0.03333333333333333 0.76 0.03333333333333333 0.2 0.77 0.1 0.2 0.75 0.03333333333333333 0.1666666666666667 0.74 0.03333333333333333 0.1333333333333333 0.76 0.1333333333333333 0.2 0.77 0.1333333333333333 0.2 0.76 0.1333333333333333 0.1666666666666667 0.76 0.1 0.1666666666666667 0.75 0.09999999999999999 0.1333333333333333 0.73 0.03333333333333333 0.09999999999999999 0.72 0.03333333333333333 0.06666666666666667 0.75 0.1666666666666667 0 0.76 0.2 0.09999999999999999 0.75 0.1666666666666667 0.06666666666666665 0.73 0.09999999999999999 0 0.77 0.2 0.1666666666666667 0.75 0.1666666666666667 0.09999999999999999 0.74 0.1333333333333333 0.1333333333333333 0.75 0.1333333333333333 0.1333333333333333 0.74 0.1333333333333333 0.09999999999999998 0.74 0.1 0.1 0.73 0.09999999999999999 0.06666666666666665 0.7000000000000001 0 0 0.71 0.03333333333333333 0.03333333333333333 0.71 0.03333333333333333 0 0.71 0 0 0.75 0 0.1666666666666667 0.76 0.1 0.2 0.75 0.06666666666666665 0.1666666666666667 0.73 0 0.09999999999999999 0.77 0.1666666666666667 0.2 0.75 0.1 0.1666666666666667 0.74 0.1 0.1333333333333333 0.73 0.06666666666666665 0.09999999999999999 0.71 0 0.03333333333333333 0.74 0.2 0 0.75 0.2 0.03333333333333333 0.75 0.2 0 0.74 0.1666666666666667 0 0.74 0.2 0.06666666666666667 0.75 0.2 0.06666666666666667 0.74 0.1666666666666667 0.06666666666666667 0.74 0.1666666666666667 0.03333333333333333 0.72 0.1333333333333333 0 0.73 0.1333333333333333 0.03333333333333333 0.73 0.1333333333333333 0 0.72 0.1 0 0.76 0.2 0.2 0.77 0.2 0.2 0.76 0.2 0.1666666666666667 0.76 0.1666666666666667 0.1666666666666667 0.75 0.1666666666666667 0.1333333333333333 0.73 0.1 0.09999999999999999 0.72 0.1333333333333333 0.06666666666666667 0.73 0.1333333333333333 0.06666666666666665 0.72 0.1 0.06666666666666667 0.72 0.09999999999999998 0.03333333333333333 0.7000000000000001 0.06666666666666667 0 0.71 0.06666666666666665 0.03333333333333333 0.71 0.06666666666666665 0 0.7000000000000001 0.03333333333333333 0 0.74 0 0.2 0.75 0.03333333333333333 0.2 0.75 -1.850371707708594e-18 0.2 0.74 -1.850371707708594e-18 0.1666666666666667 0.74 0.06666666666666667 0.2 0.75 0.06666666666666665 0.2 0.74 0.06666666666666665 0.1666666666666667 0.74 0.03333333333333333 0.1666666666666667 0.72 0 0.1333333333333333 0.73 0.03333333333333333 0.1333333333333333 0.73 0 0.1333333333333333 0.72 -1.850371707708594e-18 0.09999999999999998 0.76 0.1666666666666667 0.2 0.75 0.1333333333333333 0.1666666666666667 0.72 0.06666666666666667 0.1333333333333333 0.73 0.06666666666666665 0.1333333333333333 0.72 0.06666666666666665 0.09999999999999998 0.72 0.03333333333333333 0.1 0.7000000000000001 0 0.06666666666666667 0.71 0.03333333333333333 0.06666666666666665 0.71 0 0.06666666666666665 0.7 -1.850371707708594e-18 0.03333333333333333 0.74 0.2 0.03333333333333333 0.75 0.2 0.09999999999999998 0.73 0.1666666666666667 0.03333333333333333 0.72 0.1333333333333333 0.03333333333333333 0.75 0.1666666666666667 0.1666666666666667 0.74 0.2 0.1333333333333333 0.75 0.2 0.1333333333333333 0.74 0.1666666666666667 0.1333333333333333 0.74 0.1666666666666667 0.09999999999999999 0.73 0.1333333333333333 0.09999999999999999 0.71 0.09999999999999999 0.03333333333333333 0.7000000000000001 0.06666666666666667 0.06666666666666667 0.71 0.06666666666666665 0.06666666666666665 0.7 0.06666666666666665 0.03333333333333333 0.7000000000000001 0.03333333333333333 0.03333333333333333 0.74 0.03333333333333333 0.2 0.75 0.1 0.2 0.73 0.03333333333333333 0.1666666666666667 0.72 0.03333333333333333 0.1333333333333333 0.74 0.1333333333333333 0.2 0.75 0.1333333333333333 0.2 0.74 0.1333333333333333 0.1666666666666667 0.74 0.1 0.1666666666666667 0.73 0.09999999999999999 0.1333333333333333 0.71 0.03333333333333333 0.09999999999999999 0.7000000000000001 0.03333333333333333 0.06666666666666667 0.73 0.1666666666666667 0 0.74 0.2 0.09999999999999999 0.73 0.1666666666666667 0.06666666666666665 0.71 0.09999999999999999 0 0.75 0.2 0.1666666666666667 0.73 0.1666666666666667 0.09999999999999999 0.72 0.1333333333333333 0.1333333333333333 0.73 0.1333333333333333 0.1333333333333333 0.72 0.1333333333333333 0.09999999999999998 0.72 0.1 0.1 0.71 0.09999999999999999 0.06666666666666665 0.68 0 0 0.6900000000000001 0.03333333333333333 0.03333333333333333 0.6899999999999999 0.03333333333333333 0 0.6899999999999999 0 0 0.73 0 0.1666666666666667 0.74 0.1 0.2 0.73 0.06666666666666665 0.1666666666666667 0.71 0 0.09999999999999999 0.75 0.1666666666666667 0.2 0.73 0.1 0.1666666666666667 0.72 0.1 0.1333333333333333 0.71 0.06666666666666665 0.09999999999999999 0.6899999999999999 0 0.03333333333333333 0.72 0.2 0 0.73 0.2 0.03333333333333333 0.73 0.2 0 0.72 0.1666666666666667 0 0.72 0.2 0.06666666666666667 0.73 0.2 0.06666666666666667 0.72 0.1666666666666667 0.06666666666666667 0.72 0.1666666666666667 0.03333333333333333 0.7000000000000001 0.1333333333333333 0 0.71 0.1333333333333333 0.03333333333333333 0.71 0.1333333333333333 0 0.7000000000000001 0.1 0 0.74 0.2 0.2 0.75 0.2 0.2 0.74 0.2 0.1666666666666667 0.74 0.1666666666666667 0.1666666666666667 0.73 0.1666666666666667 0.1333333333333333 0.71 0.1 0.09999999999999999 0.7000000000000001 0.1333333333333333 0.06666666666666667 0.71 0.1333333333333333 0.06666666666666665 0.7000000000000001 0.1 0.06666666666666667 0.7 0.09999999999999998 0.03333333333333333 0.68 0.06666666666666667 0 0.6899999999999999 0.06666666666666665 0.03333333333333333 0.6899999999999999 0.06666666666666665 0 0.68 0.03333333333333333 0 0.72 0 0.2 0.73 0.03333333333333333 0.2 0.73 -1.850371707708594e-18 0.2 0.72 -1.850371707708594e-18 0.1666666666666667 0.72 0.06666666666666667 0.2 0.73 0.06666666666666665 0.2 0.72 0.06666666666666665 0.1666666666666667 0.72 0.03333333333333333 0.1666666666666667 0.7000000000000001 0 0.1333333333333333 0.71 0.03333333333333333 0.1333333333333333 0.71 0 0.1333333333333333 0.7 -1.850371707708594e-18 0.09999999999999998 0.74 0.1666666666666667 0.2 0.73 0.1333333333333333 0.1666666666666667 0.7000000000000001 0.06666666666666667 0.1333333333333333 0.71 0.06666666666666665 0.1333333333333333 0.7 0.06666666666666665 0.09999999999999998 0.7000000000000001 0.03333333333333333 0.1 0.68 0 0.06666666666666667 0.6899999999999999 0.03333333333333333 0.06666666666666665 0.6899999999999999 0 0.06666666666666665 0.6799999999999999 -1.850371707708594e-18 0.03333333333333333 0.72 0.2 0.03333333333333333 0.73 0.2 0.09999999999999998 0.71 0.1666666666666667 0.03333333333333333 0.7 0.1333333333333333 0.03333333333333333 0.73 0.1666666666666667 0.1666666666666667 0.72 0.2 0.1333333333333333 0.73 0.2 0.1333333333333333 0.72 0.1666666666666667 0.1333333333333333 0.72 0.1666666666666667 0.09999999999999999 0.71 0.1333333333333333 0.09999999999999999 0.6900000000000001 0.09999999999999999 0.03333333333333333 0.68 0.06666666666666667 0.06666666666666667 0.6899999999999999 0.06666666666666665 0.06666666666666665 0.6799999999999999 0.06666666666666665 0.03333333333333333 0.68 0.03333333333333333 0.03333333333333333 0.72 0.03333333333333333 0.2 0.73 0.1 0.2 0.71 0.03333333333333333 0.1666666666666667 0.7000000000000001 0.03333333333333333 0.1333333333333333 0.72 0.1333333333333333 0.2 0.73 0.1333333333333333 0.2 0.72 0.1333333333333333 0.1666666666666667 0.72 0.1 0.1666666666666667 0.71 0.09999999999999999 0.1333333333333333 0.6900000000000001 0.03333333333333333 0.09999999999999999 0.68 0.03333333333333333 0.06666666666666667 0.71 0.1666666666666667 0 0.72 0.2 0.09999999999999999 0.71 0.1666666666666667 0.06666666666666665 0.6899999999999999 0.09999999999999999 0 0.73 0.2 0.1666666666666667 0.71 0.1666666666666667 0.09999999999999999 0.7000000000000001 0.1333333333333333 0.1333333333333333 0.71 0.1333333333333333 0.1333333333333333 0.7 0.1333333333333333 0.09999999999999998 0.7000000000000001 0.1 0.1 0.6899999999999999 0.09999999999999999 0.06666666666666665 0.66 0 0 0.67 0.03333333333333333 0.03333333333333333 0.6699999999999999 0.03333333333333333 0 0.6699999999999999 0 0 0.71 0 0.1666666666666667 0.72 0.1 0.2 0.71 0.06666666666666665 0.1666666666666667 0.6899999999999999 0 0.09999999999999999 0.73 0.1666666666666667 0.2 0.71 0.1 0.1666666666666667 0.7000000000000001 0.1 0.1333333333333333 0.6899999999999999 0.06666666666666665 0.09999999999999999 0.6699999999999999 0 0.03333333333333333 0.7000000000000001 0.2 0 0.71 0.2 0.03333333333333333 0.71 0.2 0 0.7000000000000001 0.1666666666666667 0 0.7000000000000001 0.2 0.06666666666666667 0.71 0.2 0.06666666666666667 0.7000000000000001 0.1666666666666667 0.06666666666666667 0.7 0.1666666666666667 0.03333333333333333 0.68 0.1333333333333333 0 0.6899999999999999 0.1333333333333333 0.03333333333333333 0.6899999999999999 0.1333333333333333 0 0.68 0.1 0 0.72 0.2 0.2 0.73 0.2 0.2 0.72 0.2 0.1666666666666667 0.72 0.1666666666666667 0.1666666666666667 0.71 0.1666666666666667 0.1333333333333333 0.6900000000000001 0.1 0.09999999999999999 0.68 0.1333333333333333 0.06666666666666667 0.6899999999999999 0.1333333333333333 0.06666666666666665 0.68 0.1 0.06666666666666667 0.6799999999999999 0.09999999999999998 0.03333333333333333 0.66 0.06666666666666667 0 0.6699999999999999 0.06666666666666665 0.03333333333333333 0.6699999999999999 0.06666666666666665 0 0.66 0.03333333333333333 0 0.7000000000000001 0 0.2 0.7100000000000001 0.03333333333333333 0.2 0.71 -1.850371707708594e-18 0.2 0.7 -1.850371707708594e-18 0.1666666666666667 0.7000000000000001 0.06666666666666667 0.2 0.71 0.06666666666666665 0.2 0.7 0.06666666666666665 0.1666666666666667 0.7000000000000001 0.03333333333333333 0.1666666666666667 0.68 0 0.1333333333333333 0.6899999999999999 0.03333333333333333 0.1333333333333333 0.6899999999999999 0 0.1333333333333333 0.6799999999999999 -1.850371707708594e-18 0.09999999999999998 0.72 0.1666666666666667 0.2 0.71 0.1333333333333333 0.1666666666666667 0.68 0.06666666666666667 0.1333333333333333 0.6899999999999999 0.06666666666666665 0.1333333333333333 0.6799999999999999 0.06666666666666665 0.09999999999999998 0.68 0.03333333333333333 0.1 0.66 0 0.06666666666666667 0.6699999999999999 0.03333333333333333 0.06666666666666665 0.6699999999999999 0 0.06666666666666665 0.6599999999999999 -1.850371707708594e-18 0.03333333333333333 0.7 0.2 0.03333333333333333 0.71 0.2 0.09999999999999998 0.6900000000000001 0.1666666666666667 0.03333333333333333 0.6799999999999999 0.1333333333333333 0.03333333333333333 0.71 0.1666666666666667 0.1666666666666667 0.7000000000000001 0.2 0.1333333333333333 0.71 0.2 0.1333333333333333 0.7000000000000001 0.1666666666666667 0.1333333333333333 0.7 0.1666666666666667 0.09999999999999999 0.6899999999999999 0.1333333333333333 0.09999999999999999 0.67 0.09999999999999999 0.03333333333333333 0.66 0.06666666666666667 0.06666666666666667 0.6699999999999999 0.06666666666666665 0.06666666666666665 0.6599999999999999 0.06666666666666665 0.03333333333333333 0.66 0.03333333333333333 0.03333333333333333 0.7000000000000001 0.03333333333333333 0.2 0.7100000000000001 0.1 0.2 0.6900000000000001 0.03333333333333333 0.1666666666666667 0.68 0.03333333333333333 0.1333333333333333 0.7000000000000001 0.1333333333333333 0.2 0.71 0.1333333333333333 0.2 0.7 0.1333333333333333 0.1666666666666667 0.7000000000000001 0.1 0.1666666666666667 0.6899999999999999 0.09999999999999999 0.1333333333333333 0.67 0.03333333333333333 0.09999999999999999 0.66 0.03333333333333333 0.06666666666666667 0.6899999999999999 0.1666666666666667 0 0.7 0.2 0.09999999999999999 0.6899999999999999 0.1666666666666667 0.06666666666666665 0.6699999999999999 0.09999999999999999 0 0.71 0.2 0.1666666666666667 0.6900000000000001 0.1666666666666667 0.09999999999999999 0.68 0.1333333333333333 0.1333333333333333 0.6899999999999999 0.1333333333333333 0.1333333333333333 0.6799999999999999 0.1333333333333333 0.09999999999999998 0.68 0.1 0.1 0.6699999999999999 0.09999999999999999 0.06666666666666665 0.64 0 0 0.65 0.03333333333333333 0.03333333333333333 0.6499999999999999 0.03333333333333333 0 0.6499999999999999 0 0 0.6899999999999999 0 0.1666666666666667 0.7000000000000001 0.1 0.2 0.6899999999999999 0.06666666666666665 0.1666666666666667 0.6699999999999999 0 0.09999999999999999 0.7100000000000001 0.1666666666666667 0.2 0.6900000000000001 0.1 0.1666666666666667 0.68 0.1 0.1333333333333333 0.6699999999999999 0.06666666666666665 0.09999999999999999 0.6499999999999999 0 0.03333333333333333 0.68 0.2 0 0.6899999999999999 0.2 0.03333333333333333 0.6900000000000001 0.2 0 0.68 0.1666666666666667 0 0.68 0.2 0.06666666666666667 0.6900000000000001 0.2 0.06666666666666667 0.68 0.1666666666666667 0.06666666666666667 0.6799999999999999 0.1666666666666667 0.03333333333333333 0.66 0.1333333333333333 0 0.6699999999999999 0.1333333333333333 0.03333333333333333 0.6699999999999999 0.1333333333333333 0 0.66 0.1 0 0.7000000000000001 0.2 0.2 0.71 0.2 0.2 0.7 0.2 0.1666666666666667 0.7000000000000001 0.1666666666666667 0.1666666666666667 0.6899999999999999 0.1666666666666667 0.1333333333333333 0.67 0.1 0.09999999999999999 0.66 0.1333333333333333 0.06666666666666667 0.6699999999999999 0.1333333333333333 0.06666666666666665 0.66 0.1 0.06666666666666667 0.6599999999999999 0.09999999999999998 0.03333333333333333 0.64 0.06666666666666667 0 0.6499999999999999 0.06666666666666665 0.03333333333333333 0.6499999999999999 0.06666666666666665 0 0.64 0.03333333333333333 0 0.68 0 0.2 0.6900000000000002 0.03333333333333333 0.2 0.6899999999999999 -1.850371707708594e-18 0.2 0.6799999999999999 -1.850371707708594e-18 0.1666666666666667 0.68 0.06666666666666667 0.2 0.6899999999999999 0.06666666666666665 0.2 0.6799999999999999 0.06666666666666665 0.1666666666666667 0.68 0.03333333333333333 0.1666666666666667 0.66 0 0.1333333333333333 0.6699999999999999 0.03333333333333333 0.1333333333333333 0.6699999999999999 0 0.1333333333333333 0.6599999999999999 -1.850371707708594e-18 0.09999999999999998 0.7000000000000001 0.1666666666666667 0.2 0.6899999999999999 0.1333333333333333 0.1666666666666667 0.66 0.06666666666666667 0.1333333333333333 0.6699999999999999 0.06666666666666665 0.1333333333333333 0.6599999999999999 0.06666666666666665 0.09999999999999998 0.66 0.03333333333333333 0.1 0.64 0 0.06666666666666667 0.6499999999999999 0.03333333333333333 0.06666666666666665 0.6499999999999999 0 0.06666666666666665 0.6399999999999999 -1.850371707708594e-18 0.03333333333333333 0.6799999999999999 0.2 0.03333333333333333 0.6899999999999999 0.2 0.09999999999999998 0.67 0.1666666666666667 0.03333333333333333 0.6599999999999999 0.1333333333333333 0.03333333333333333 0.6900000000000001 0.1666666666666667 0.1666666666666667 0.68 0.2 0.1333333333333333 0.6900000000000001 0.2 0.1333333333333333 0.68 0.1666666666666667 0.1333333333333333 0.6799999999999999 0.1666666666666667 0.09999999999999999 0.6699999999999999 0.1333333333333333 0.09999999999999999 0.65 0.09999999999999999 0.03333333333333333 0.64 0.06666666666666667 0.06666666666666667 0.6499999999999999 0.06666666666666665 0.06666666666666665 0.6399999999999999 0.06666666666666665 0.03333333333333333 0.64 0.03333333333333333 0.03333333333333333 0.68 0.03333333333333333 0.2 0.6900000000000002 0.1 0.2 0.67 0.03333333333333333 0.1666666666666667 0.66 0.03333333333333333 0.1333333333333333 0.68 0.1333333333333333 0.2 0.6899999999999999 0.1333333333333333 0.2 0.6799999999999999 0.1333333333333333 0.1666666666666667 0.68 0.1 0.1666666666666667 0.6699999999999999 0.09999999999999999 0.1333333333333333 0.65 0.03333333333333333 0.09999999999999999 0.64 0.03333333333333333 0.06666666666666667 0.6699999999999999 0.1666666666666667 0 0.6799999999999999 0.2 0.09999999999999999 0.6699999999999999 0.1666666666666667 0.06666666666666665 0.6499999999999999 0.09999999999999999 0 0.6899999999999999 0.2 0.1666666666666667 0.67 0.1666666666666667 0.09999999999999999 0.66 0.1333333333333333 0.1333333333333333 0.6699999999999999 0.1333333333333333 0.1333333333333333 0.6599999999999999 0.1333333333333333 0.09999999999999998 0.66 0.1 0.1 0.6499999999999999 0.09999999999999999 0.06666666666666665 0.62 0 0 0.63 0.03333333333333333 0.03333333333333333 0.6299999999999999 0.03333333333333333 0 0.6299999999999999 0 0 0.6699999999999999 0 0.1666666666666667 0.68 0.1 0.2 0.6699999999999999 0.06666666666666665 0.1666666666666667 0.6499999999999999 0 0.09999999999999999 0.6900000000000002 0.1666666666666667 0.2 0.67 0.1 0.1666666666666667 0.66 0.1 0.1333333333333333 0.6499999999999999 0.06666666666666665 0.09999999999999999 0.6299999999999999 0 0.03333333333333333 0.66 0.2 0 0.6699999999999999 0.2 0.03333333333333333 0.67 0.2 0 0.66 0.1666666666666667 0 0.66 0.2 0.06666666666666667 0.67 0.2 0.06666666666666667 0.66 0.1666666666666667 0.06666666666666667 0.6599999999999999 0.1666666666666667 0.03333333333333333 0.64 0.1333333333333333 0 0.6499999999999999 0.1333333333333333 0.03333333333333333 0.6499999999999999 0.1333333333333333 0 0.64 0.1 0 0.68 0.2 0.2 0.6899999999999999 0.2 0.2 0.6799999999999999 0.2 0.1666666666666667 0.68 0.1666666666666667 0.1666666666666667 0.6699999999999999 0.1666666666666667 0.1333333333333333 0.65 0.1 0.09999999999999999 0.64 0.1333333333333333 0.06666666666666667 0.6499999999999999 0.1333333333333333 0.06666666666666665 0.64 0.1 0.06666666666666667 0.6399999999999999 0.09999999999999998 0.03333333333333333 0.62 0.06666666666666667 0 0.6299999999999999 0.06666666666666665 0.03333333333333333 0.6299999999999999 0.06666666666666665 0 0.62 0.03333333333333333 0 0.66 0 0.2 0.6700000000000002 0.03333333333333333 0.2 0.6699999999999999 -1.850371707708594e-18 0.2 0.6599999999999999 -1.850371707708594e-18 0.1666666666666667 0.66 0.06666666666666667 0.2 0.6699999999999999 0.06666666666666665 0.2 0.6599999999999999 0.06666666666666665 0.1666666666666667 0.66 0.03333333333333333 0.1666666666666667 0.64 0 0.1333333333333333 0.6499999999999999 0.03333333333333333 0.1333333333333333 0.6499999999999999 0 0.1333333333333333 0.6399999999999999 -1.850371707708594e-18 0.09999999999999998 0.68 0.1666666666666667 0.2 0.6699999999999999 0.1333333333333333 0.1666666666666667 0.64 0.06666666666666667 0.1333333333333333 0.6499999999999999 0.06666666666666665 0.1333333333333333 0.6399999999999999 0.06666666666666665 0.09999999999999998 0.64 0.03333333333333333 0.1 0.62 0 0.06666666666666667 0.6299999999999999 0.03333333333333333 0.06666666666666665 0.6299999999999999 0 0.06666666666666665 0.6199999999999999 -1.850371707708594e-18 0.03333333333333333 0.6599999999999999 0.2 0.03333333333333333 0.6699999999999999 0.2 0.09999999999999998 0.65 0.1666666666666667 0.03333333333333333 0.6399999999999999 0.1333333333333333 0.03333333333333333 0.67 0.1666666666666667 0.1666666666666667 0.66 0.2 0.1333333333333333 0.67 0.2 0.1333333333333333 0.66 0.1666666666666667 0.1333333333333333 0.6599999999999999 0.1666666666666667 0.09999999999999999 0.6499999999999999 0.1333333333333333 0.09999999999999999 0.63 0.09999999999999999 0.03333333333333333 0.62 0.06666666666666667 0.06666666666666667 0.6299999999999999 0.06666666666666665 0.06666666666666665 0.6199999999999999 0.06666666666666665 0.03333333333333333 0.62 0.03333333333333333 0.03333333333333333 0.66 0.03333333333333333 0.2 0.6700000000000002 0.1 0.2 0.65 0.03333333333333333 0.1666666666666667 0.64 0.03333333333333333 0.1333333333333333 0.66 0.1333333333333333 0.2 0.6699999999999999 0.1333333333333333 0.2 0.6599999999999999 0.1333333333333333 0.1666666666666667 0.66 0.1 0.1666666666666667 0.6499999999999999 0.09999999999999999 0.1333333333333333 0.63 0.03333333333333333 0.09999999999999999 0.62 0.03333333333333333 0.06666666666666667 0.6499999999999999 0.1666666666666667 0 0.6599999999999999 0.2 0.09999999999999999 0.6499999999999999 0.1666666666666667 0.06666666666666665 0.6299999999999999 0.09999999999999999 0 0.6699999999999999 0.2 0.1666666666666667 0.65 0.1666666666666667 0.09999999999999999 0.64 0.1333333333333333 0.1333333333333333 0.6499999999999999 0.1333333333333333 0.1333333333333333 0.6399999999999999 0.1333333333333333 0.09999999999999998 0.64 0.1 0.1 0.6299999999999999 0.09999999999999999 0.06666666666666665 0.6 0 0 0.61 0.03333333333333333 0.03333333333333333 0.6099999999999999 0.03333333333333333 0 0.6099999999999999 0 0 0.6499999999999999 0 0.1666666666666667 0.66 0.1 0.2 0.6499999999999999 0.06666666666666665 0.1666666666666667 0.6299999999999999 0 0.09999999999999999 0.6700000000000002 0.1666666666666667 0.2 0.65 0.1 0.1666666666666667 0.64 0.1 0.1333333333333333 0.6299999999999999 0.06666666666666665 0.09999999999999999 0.6099999999999999 0 0.03333333333333333 0.64 0.2 0 0.6499999999999999 0.2 0.03333333333333333 0.65 0.2 0 0.64 0.1666666666666667 0 0.64 0.2 0.06666666666666667 0.65 0.2 0.06666666666666667 0.64 0.1666666666666667 0.06666666666666667 0.6399999999999999 0.1666666666666667 0.03333333333333333 0.62 0.1333333333333333 0 0.6299999999999999 0.1333333333333333 0.03333333333333333 0.6299999999999999 0.1333333333333333 0 0.62 0.1 0 0.66 0.2 0.2 0.6699999999999999 0.2 0.2 0.6599999999999999 0.2 0.1666666666666667 0.66 0.1666666666666667 0.1666666666666667 0.6499999999999999 0.1666666666666667 0.1333333333333333 0.63 0.1 0.09999999999999999 0.62 0.1333333333333333 0.06666666666666667 0.6299999999999999 0.1333333333333333 0.06666666666666665 0.62 0.1 0.06666666666666667 0.6199999999999999 0.09999999999999998 0.03333333333333333 0.6 0.06666666666666667 0 0.6099999999999999 0.06666666666666665 0.03333333333333333 0.6099999999999999 0.06666666666666665 0 0.6 0.03333333333333333 0 0.64 0 0.2 0.6500000000000001 0.03333333333333333 0.2 0.6499999999999999 -1.850371707708594e-18 0.2 0.6399999999999999 -1.850371707708594e-18 0.1666666666666667 0.64 0.06666666666666667 0.2 0.6499999999999999 0.06666666666666665 0.2 0.6399999999999999 0.06666666666666665 0.1666666666666667 0.64 0.03333333333333333 0.1666666666666667 0.62 0 0.1333333333333333 0.6299999999999999 0.03333333333333333 0.1333333333333333 0.6299999999999999 0 0.1333333333333333 0.6199999999999999 -1.850371707708594e-18 0.09999999999999998 0.66 0.1666666666666667 0.2 0.6499999999999999 0.1333333333333333 0.1666666666666667 0.62 0.06666666666666667 0.1333333333333333 0.6299999999999999 0.06666666666666665 0.1333333333333333 0.6199999999999999 0.06666666666666665 0.09999999999999998 0.62 0.03333333333333333 0.1 0.6 0 0.06666666666666667 0.6099999999999999 0.03333333333333333 0.06666666666666665 0.6099999999999999 0 0.06666666666666665 0.5999999999999999 -1.850371707708594e-18 0.03333333333333333 0.6399999999999999 0.2 0.03333333333333333 0.6499999999999999 0.2 0.09999999999999998 0.63 0.1666666666666667 0.03333333333333333 0.6199999999999999 0.1333333333333333 0.03333333333333333 0.65 0.1666666666666667 0.1666666666666667 0.64 0.2 0.1333333333333333 0.65 0.2 0.1333333333333333 0.64 0.1666666666666667 0.1333333333333333 0.6399999999999999 0.1666666666666667 0.09999999999999999 0.6299999999999999 0.1333333333333333 0.09999999999999999 0.61 0.09999999999999999 0.03333333333333333 0.6 0.06666666666666667 0.06666666666666667 0.6099999999999999 0.06666666666666665 0.06666666666666665 0.5999999999999999 0.06666666666666665 0.03333333333333333 0.6 0.03333333333333333 0.03333333333333333 0.64 0.03333333333333333 0.2 0.6500000000000001 0.1 0.2 0.63 0.03333333333333333 0.1666666666666667 0.62 0.03333333333333333 0.1333333333333333 0.64 0.1333333333333333 0.2 0.6499999999999999 0.1333333333333333 0.2 0.6399999999999999 0.1333333333333333 0.1666666666666667 0.64 0.1 0.1666666666666667 0.6299999999999999 0.09999999999999999 0.1333333333333333 0.61 0.03333333333333333 0.09999999999999999 0.6 0.03333333333333333 0.06666666666666667 0.6299999999999999 0.1666666666666667 0 0.6399999999999999 0.2 0.09999999999999999 0.6299999999999999 0.1666666666666667 0.06666666666666665 0.6099999999999999 0.09999999999999999 0 0.6499999999999999 0.2 0.1666666666666667 0.63 0.1666666666666667 0.09999999999999999 0.62 0.1333333333333333 0.1333333333333333 0.6299999999999999 0.1333333333333333 0.1333333333333333 0.6199999999999999 0.1333333333333333 0.09999999999999998 0.62 0.1 0.1 0.6099999999999999 0.09999999999999999 0.06666666666666665 0.58 0 0 0.59 0.03333333333333333 0.03333333333333333 0.5899999999999999 0.03333333333333333 0 0.5899999999999999 0 0 0.6299999999999999 0 0.1666666666666667 0.64 0.1 0.2 0.6299999999999999 0.06666666666666665 0.1666666666666667 0.6099999999999999 0 0.09999999999999999 0.6500000000000001 0.1666666666666667 0.2 0.63 0.1 0.1666666666666667 0.62 0.1 0.1333333333333333 0.6099999999999999 0.06666666666666665 0.09999999999999999 0.5899999999999999 0 0.03333333333333333 0.62 0.2 0 0.6299999999999999 0.2 0.03333333333333333 0.63 0.2 0 0.62 0.1666666666666667 0 0.62 0.2 0.06666666666666667 0.63 0.2 0.06666666666666667 0.62 0.1666666666666667 0.06666666666666667 0.6199999999999999 0.1666666666666667 0.03333333333333333 0.6 0.1333333333333333 0 0.6099999999999999 0.1333333333333333 0.03333333333333333 0.6099999999999999 0.1333333333333333 0 0.6 0.1 0 0.64 0.2 0.2 0.6499999999999999 0.2 0.2 0.6399999999999999 0.2 0.1666666666666667 0.64 0.1666666666666667 0.1666666666666667 0.6299999999999999 0.1666666666666667 0.1333333333333333 0.61 0.1 0.09999999999999999 0.6 0.1333333333333333 0.06666666666666667 0.6099999999999999 0.1333333333333333 0.06666666666666665 0.6 0.1 0.06666666666666667 0.5999999999999999 0.09999999999999998 0.03333333333333333 0.58 0.06666666666666667 0 0.5899999999999999 0.06666666666666665 0.03333333333333333 0.5899999999999999 0.06666666666666665 0 0.58 0.03333333333333333 0 0.62 0 0.2 0.6300000000000001 0.03333333333333333 0.2 0.6299999999999999 -1.850371707708594e-18 0.2 0.6199999999999999 -1.850371707708594e-18 0.1666666666666667 0.62 0.06666666666666667 0.2 0.6299999999999999 0.06666666666666665 0.2 0.6199999999999999 0.06666666666666665 0.1666666666666667 0.62 0.03333333333333333 0.1666666666666667 0.6 0 0.1333333333333333 0.6099999999999999 0.03333333333333333 0.1333333333333333 0.6099999999999999 0 0.1333333333333333 0.5999999999999999 -1.850371707708594e-18 0.09999999999999998 0.64 0.1666666666666667 0.2 0.6299999999999999 0.1333333333333333 0.1666666666666667 0.6 0.06666666666666667 0.1333333333333333 0.6099999999999999 0.06666666666666665 0.1333333333333333 0.5999999999999999 0.06666666666666665 0.09999999999999998 0.6 0.03333333333333333 0.1 0.58 0 0.06666666666666667 0.5899999999999999 0.03333333333333333 0.06666666666666665 0.5899999999999999 0 0.06666666666666665 0.5799999999999998 -1.850371707708594e-18 0.03333333333333333 0.6199999999999999 0.2 0.03333333333333333 0.6299999999999999 0.2 0.09999999999999998 0.61 0.1666666666666667 0.03333333333333333 0.5999999999999999 0.1333333333333333 0.03333333333333333 0.63 0.1666666666666667 0.1666666666666667 0.62 0.2 0.1333333333333333 0.63 0.2 0.1333333333333333 0.62 0.1666666666666667 0.1333333333333333 0.6199999999999999 0.1666666666666667 0.09999999999999999 0.6099999999999999 0.1333333333333333 0.09999999999999999 0.59 0.09999999999999999 0.03333333333333333 0.58 0.06666666666666667 0.06666666666666667 0.5899999999999999 0.06666666666666665 0.06666666666666665 0.5799999999999998 0.06666666666666665 0.03333333333333333 0.58 0.03333333333333333 0.03333333333333333 0.62 0.03333333333333333 0.2 0.6300000000000001 0.1 0.2 0.61 0.03333333333333333 0.1666666666666667 0.6 0.03333333333333333 0.1333333333333333 0.62 0.1333333333333333 0.2 0.6299999999999999 0.1333333333333333 0.2 0.6199999999999999 0.1333333333333333 0.1666666666666667 0.62 0.1 0.1666666666666667 0.6099999999999999 0.09999999999999999 0.1333333333333333 0.59 0.03333333333333333 0.09999999999999999 0.58 0.03333333333333333 0.06666666666666667 0.6099999999999999 0.1666666666666667 0 0.6199999999999999 0.2 0.09999999999999999 0.6099999999999999 0.1666666666666667 0.06666666666666665 0.5899999999999999 0.09999999999999999 0 0.6299999999999999 0.2 0.1666666666666667 0.61 0.1666666666666667 0.09999999999999999 0.6 0.1333333333333333 0.1333333333333333 0.6099999999999999 0.1333333333333333 0.1333333333333333 0.5999999999999999 0.1333333333333333 0.09999999999999998 0.6 0.1 0.1 0.5899999999999999 0.09999999999999999 0.06666666666666665 0.5600000000000001 0 0 0.5700000000000001 0.03333333333333333 0.03333333333333333 0.57 0.03333333333333333 0 0.57 0 0 0.6099999999999999 0 0.1666666666666667 0.62 0.1 0.2 0.6099999999999999 0.06666666666666665 0.1666666666666667 0.5899999999999999 0 0.09999999999999999 0.6300000000000001 0.1666666666666667 0.2 0.61 0.1 0.1666666666666667 0.6 0.1 0.1333333333333333 0.5899999999999999 0.06666666666666665 0.09999999999999999 0.57 0 0.03333333333333333 0.6 0.2 0 0.6099999999999999 0.2 0.03333333333333333 0.61 0.2 0 0.6 0.1666666666666667 0 0.6 0.2 0.06666666666666667 0.61 0.2 0.06666666666666667 0.6 0.1666666666666667 0.06666666666666667 0.5999999999999999 0.1666666666666667 0.03333333333333333 0.58 0.1333333333333333 0 0.5899999999999999 0.1333333333333333 0.03333333333333333 0.5899999999999999 0.1333333333333333 0 0.58 0.1 0 0.62 0.2 0.2 0.6299999999999999 0.2 0.2 0.6199999999999999 0.2 0.1666666666666667 0.62 0.1666666666666667 0.1666666666666667 0.6099999999999999 0.1666666666666667 0.1333333333333333 0.59 0.1 0.09999999999999999 0.58 0.1333333333333333 0.06666666666666667 0.5899999999999999 0.1333333333333333 0.06666666666666665 0.58 0.1 0.06666666666666667 0.5799999999999998 0.09999999999999998 0.03333333333333333 0.5600000000000001 0.06666666666666667 0 0.57 0.06666666666666665 0.03333333333333333 0.57 0.06666666666666665 0 0.5600000000000001 0.03333333333333333 0 0.6 0 0.2 0.6100000000000001 0.03333333333333333 0.2 0.6099999999999999 -1.850371707708594e-18 0.2 0.5999999999999999 -1.850371707708594e-18 0.1666666666666667 0.6 0.06666666666666667 0.2 0.6099999999999999 0.06666666666666665 0.2 0.5999999999999999 0.06666666666666665 0.1666666666666667 0.6 0.03333333333333333 0.1666666666666667 0.58 0 0.1333333333333333 0.5899999999999999 0.03333333333333333 0.1333333333333333 0.5899999999999999 0 0.1333333333333333 0.5799999999999998 -1.850371707708594e-18 0.09999999999999998 0.62 0.1666666666666667 0.2 0.6099999999999999 0.1333333333333333 0.1666666666666667 0.58 0.06666666666666667 0.1333333333333333 0.5899999999999999 0.06666666666666665 0.1333333333333333 0.5799999999999998 0.06666666666666665 0.09999999999999998 0.58 0.03333333333333333 0.1 0.5600000000000001 0 0.06666666666666667 0.57 0.03333333333333333 0.06666666666666665 0.57 0 0.06666666666666665 0.5600000000000001 -1.850371707708594e-18 0.03333333333333333 0.5999999999999999 0.2 0.03333333333333333 0.6099999999999999 0.2 0.09999999999999998 0.59 0.1666666666666667 0.03333333333333333 0.5799999999999998 0.1333333333333333 0.03333333333333333 0.61 0.1666666666666667 0.1666666666666667 0.6 0.2 0.1333333333333333 0.61 0.2 0.1333333333333333 0.6 0.1666666666666667 0.1333333333333333 0.5999999999999999 0.1666666666666667 0.09999999999999999 0.5899999999999999 0.1333333333333333 0.09999999999999999 0.5700000000000001 0.09999999999999999 0.03333333333333333 0.5600000000000001 0.06666666666666667 0.06666666666666667 0.57 0.06666666666666665 0.06666666666666665 0.5600000000000001 0.06666666666666665 0.03333333333333333 0.5600000000000001 0.03333333333333333 0.03333333333333333 0.6 0.03333333333333333 0.2 0.6100000000000001 0.1 0.2 0.59 0.03333333333333333 0.1666666666666667 0.58 0.03333333333333333 0.1333333333333333 0.6 0.1333333333333333 0.2 0.6099999999999999 0.1333333333333333 0.2 0.5999999999999999 0.1333333333333333 0.1666666666666667 0.6 0.1 0.1666666666666667 0.5899999999999999 0.09999999999999999 0.1333333333333333 0.5700000000000001 0.03333333333333333 0.09999999999999999 0.5600000000000001 0.03333333333333333 0.06666666666666667 0.5899999999999999 0.1666666666666667 0 0.5999999999999999 0.2 0.09999999999999999 0.5899999999999999 0.1666666666666667 0.06666666666666665 0.57 0.09999999999999999 0 0.6099999999999999 0.2 0.1666666666666667 0.59 0.1666666666666667 0.09999999999999999 0.58 0.1333333333333333 0.1333333333333333 0.5899999999999999 0.1333333333333333 0.1333333333333333 0.5799999999999998 0.1333333333333333 0.09999999999999998 0.58 0.1 0.1 0.57 0.09999999999999999 0.06666666666666665 0.54 0 0 0.55 0.03333333333333333 0.03333333333333333 0.55 0.03333333333333333 0 0.55 0 0 0.5899999999999999 0 0.1666666666666667 0.6 0.1 0.2 0.5899999999999999 0.06666666666666665 0.1666666666666667 0.57 0 0.09999999999999999 0.6100000000000001 0.1666666666666667 0.2 0.59 0.1 0.1666666666666667 0.58 0.1 0.1333333333333333 0.57 0.06666666666666665 0.09999999999999999 0.55 0 0.03333333333333333 0.58 0.2 0 0.5899999999999999 0.2 0.03333333333333333 0.59 0.2 0 0.58 0.1666666666666667 0 0.58 0.2 0.06666666666666667 0.59 0.2 0.06666666666666667 0.58 0.1666666666666667 0.06666666666666667 0.5799999999999998 0.1666666666666667 0.03333333333333333 0.5600000000000001 0.1333333333333333 0 0.57 0.1333333333333333 0.03333333333333333 0.57 0.1333333333333333 0 0.5600000000000001 0.1 0 0.6 0.2 0.2 0.6099999999999999 0.2 0.2 0.5999999999999999 0.2 0.1666666666666667 0.6 0.1666666666666667 0.1666666666666667 0.5899999999999999 0.1666666666666667 0.1333333333333333 0.5700000000000001 0.1 0.09999999999999999 0.5600000000000001 0.1333333333333333 0.06666666666666667 0.57 0.1333333333333333 0.06666666666666665 0.5600000000000001 0.1 0.06666666666666667 0.5600000000000001 0.09999999999999998 0.03333333333333333 0.54 0.06666666666666667 0 0.55 0.06666666666666665 0.03333333333333333 0.55 0.06666666666666665 0 0.54 0.03333333333333333 0 0.58 0 0.2 0.5900000000000001 0.03333333333333333 0.2 0.5899999999999999 -1.850371707708594e-18 0.2 0.5799999999999998 -1.850371707708594e-18 0.1666666666666667 0.58 0.06666666666666667 0.2 0.5899999999999999 0.06666666666666665 0.2 0.5799999999999998 0.06666666666666665 0.1666666666666667 0.58 0.03333333333333333 0.1666666666666667 0.5600000000000001 0 0.1333333333333333 0.57 0.03333333333333333 0.1333333333333333 0.57 0 0.1333333333333333 0.5600000000000001 -1.850371707708594e-18 0.09999999999999998 0.6 0.1666666666666667 0.2 0.5899999999999999 0.1333333333333333 0.1666666666666667 0.5600000000000001 0.06666666666666667 0.1333333333333333 0.57 0.06666666666666665 0.1333333333333333 0.5600000000000001 0.06666666666666665 0.09999999999999998 0.5600000000000001 0.03333333333333333 0.1 0.54 0 0.06666666666666667 0.55 0.03333333333333333 0.06666666666666665 0.55 0 0.06666666666666665 0.54 -1.850371707708594e-18 0.03333333333333333 0.5799999999999998 0.2 0.03333333333333333 0.5899999999999999 0.2 0.09999999999999998 0.5700000000000001 0.1666666666666667 0.03333333333333333 0.5600000000000001 0.1333333333333333 0.03333333333333333 0.59 0.1666666666666667 0.1666666666666667 0.58 0.2 0.1333333333333333 0.59 0.2 0.1333333333333333 0.58 0.1666666666666667 0.1333333333333333 0.5799999999999998 0.1666666666666667 0.09999999999999999 0.57 0.1333333333333333 0.09999999999999999 0.55 0.09999999999999999 0.03333333333333333 0.54 0.06666666666666667 0.06666666666666667 0.55 0.06666666666666665 0.06666666666666665 0.54 0.06666666666666665 0.03333333333333333 0.54 0.03333333333333333 0.03333333333333333 0.58 0.03333333333333333 0.2 0.5900000000000001 0.1 0.2 0.5700000000000001 0.03333333333333333 0.1666666666666667 0.5600000000000001 0.03333333333333333 0.1333333333333333 0.58 0.1333333333333333 0.2 0.5899999999999999 0.1333333333333333 0.2 0.5799999999999998 0.1333333333333333 0.1666666666666667 0.58 0.1 0.1666666666666667 0.57 0.09999999999999999 0.1333333333333333 0.55 0.03333333333333333 0.09999999999999999 0.54 0.03333333333333333 0.06666666666666667 0.57 0.1666666666666667 0 0.5799999999999998 0.2 0.09999999999999999 0.57 0.1666666666666667 0.06666666666666665 0.55 0.09999999999999999 0 0.5899999999999999 0.2 0.1666666666666667 0.5700000000000001 0.1666666666666667 0.09999999999999999 0.5600000000000001 0.1333333333333333 0.1333333333333333 0.57 0.1333333333333333 0.1333333333333333 0.5600000000000001 0.1333333333333333 0.09999999999999998 0.5600000000000001 0.1 0.1 0.55 0.09999999999999999 0.06666666666666665 0.52 0 0 0.53 0.03333333333333333 0.03333333333333333 0.53 0.03333333333333333 0 0.53 0 0 0.57 0 0.1666666666666667 0.58 0.1 0.2 0.57 0.06666666666666665 0.1666666666666667 0.55 0 0.09999999999999999 0.5900000000000001 0.1666666666666667 0.2 0.5700000000000001 0.1 0.1666666666666667 0.5600000000000001 0.1 0.1333333333333333 0.55 0.06666666666666665 0.09999999999999999 0.53 0 0.03333333333333333 0.5600000000000001 0.2 0 0.57 0.2 0.03333333333333333 0.5700000000000001 0.2 0 0.5600000000000001 0.1666666666666667 0 0.5600000000000001 0.2 0.06666666666666667 0.5700000000000001 0.2 0.06666666666666667 0.5600000000000001 0.1666666666666667 0.06666666666666667 0.5600000000000001 0.1666666666666667 0.03333333333333333 0.54 0.1333333333333333 0 0.55 0.1333333333333333 0.03333333333333333 0.55 0.1333333333333333 0 0.54 0.1 0 0.58 0.2 0.2 0.5899999999999999 0.2 0.2 0.5799999999999998 0.2 0.1666666666666667 0.58 0.1666666666666667 0.1666666666666667 0.57 0.1666666666666667 0.1333333333333333 0.55 0.1 0.09999999999999999 0.54 0.1333333333333333 0.06666666666666667 0.55 0.1333333333333333 0.06666666666666665 0.54 0.1 0.06666666666666667 0.54 0.09999999999999998 0.03333333333333333 0.52 0.06666666666666667 0 0.53 0.06666666666666665 0.03333333333333333 0.53 0.06666666666666665 0 0.52 0.03333333333333333 0 0.5600000000000001 0 0.2 0.5700000000000001 0.03333333333333333 0.2 0.57 -1.850371707708594e-18 0.2 0.5600000000000001 -1.850371707708594e-18 0.1666666666666667 0.5600000000000001 0.06666666666666667 0.2 0.57 0.06666666666666665 0.2 0.5600000000000001 0.06666666666666665 0.1666666666666667 0.5600000000000001 0.03333333333333333 0.1666666666666667 0.54 0 0.1333333333333333 0.55 0.03333333333333333 0.1333333333333333 0.55 0 0.1333333333333333 0.54 -1.850371707708594e-18 0.09999999999999998 0.58 0.1666666666666667 0.2 0.57 0.1333333333333333 0.1666666666666667 0.54 0.06666666666666667 0.1333333333333333 0.55 0.06666666666666665 0.1333333333333333 0.54 0.06666666666666665 0.09999999999999998 0.54 0.03333333333333333 0.1 0.52 0 0.06666666666666667 0.53 0.03333333333333333 0.06666666666666665 0.53 0 0.06666666666666665 0.52 -1.850371707708594e-18 0.03333333333333333 0.5600000000000001 0.2 0.03333333333333333 0.57 0.2 0.09999999999999998 0.55 0.1666666666666667 0.03333333333333333 0.54 0.1333333333333333 0.03333333333333333 0.5700000000000001 0.1666666666666667 0.1666666666666667 0.5600000000000001 0.2 0.1333333333333333 0.5700000000000001 0.2 0.1333333333333333 0.5600000000000001 0.1666666666666667 0.1333333333333333 0.5600000000000001 0.1666666666666667 0.09999999999999999 0.55 0.1333333333333333 0.09999999999999999 0.53 0.09999999999999999 0.03333333333333333 0.52 0.06666666666666667 0.06666666666666667 0.53 0.06666666666666665 0.06666666666666665 0.52 0.06666666666666665 0.03333333333333333 0.52 0.03333333333333333 0.03333333333333333 0.5600000000000001 0.03333333333333333 0.2 0.5700000000000001 0.1 0.2 0.55 0.03333333333333333 0.1666666666666667 0.54 0.03333333333333333 0.1333333333333333 0.5600000000000001 0.1333333333333333 0.2 0.57 0.1333333333333333 0.2 0.5600000000000001 0.1333333333333333 0.1666666666666667 0.5600000000000001 0.1 0.1666666666666667 0.55 0.09999999999999999 0.1333333333333333 0.53 0.03333333333333333 0.09999999999999999 0.52 0.03333333333333333 0.06666666666666667 0.55 0.1666666666666667 0 0.5600000000000001 0.2 0.09999999999999999 0.55 0.1666666666666667 0.06666666666666665 0.53 0.09999999999999999 0 0.57 0.2 0.1666666666666667 0.55 0.1666666666666667 0.09999999999999999 0.54 0.1333333333333333 0.1333333333333333 0.55 0.1333333333333333 0.1333333333333333 0.54 0.1333333333333333 0.09999999999999998 0.54 0.1 0.1 0.53 0.09999999999999999 0.06666666666666665 0.5 0 0 0.51 0.03333333333333333 0.03333333333333333 0.51 0.03333333333333333 0 0.51 0 0 0.55 0 0.1666666666666667 0.5600000000000001 0.1 0.2 0.55 0.06666666666666665 0.1666666666666667 0.53 0 0.09999999999999999 0.5700000000000001 0.1666666666666667 0.2 0.55 0.1 0.1666666666666667 0.54 0.1 0.1333333333333333 0.53 0.06666666666666665 0.09999999999999999 0.51 0 0.03333333333333333 0.54 0.2 0 0.55 0.2 0.03333333333333333 0.55 0.2 0 0.54 0.1666666666666667 0 0.54 0.2 0.06666666666666667 0.55 0.2 0.06666666666666667 0.54 0.1666666666666667 0.06666666666666667 0.54 0.1666666666666667 0.03333333333333333 0.52 0.1333333333333333 0 0.53 0.1333333333333333 0.03333333333333333 0.53 0.1333333333333333 0 0.52 0.1 0 0.5600000000000001 0.2 0.2 0.57 0.2 0.2 0.5600000000000001 0.2 0.1666666666666667 0.5600000000000001 0.1666666666666667 0.1666666666666667 0.55 0.1666666666666667 0.1333333333333333 0.53 0.1 0.09999999999999999 0.52 0.1333333333333333 0.06666666666666667 0.53 0.1333333333333333 0.06666666666666665 0.52 0.1 0.06666666666666667 0.52 0.09999999999999998 0.03333333333333333 0.5 0.06666666666666667 0 0.51 0.06666666666666665 0.03333333333333333 0.51 0.06666666666666665 0 0.5 0.03333333333333333 0 0.54 0 0.2 0.55 0.03333333333333333 0.2 0.55 -1.850371707708594e-18 0.2 0.54 -1.850371707708594e-18 0.1666666666666667 0.54 0.06666666666666667 0.2 0.55 0.06666666666666665 0.2 0.54 0.06666666666666665 0.1666666666666667 0.54 0.03333333333333333 0.1666666666666667 0.52 0 0.1333333333333333 0.53 0.03333333333333333 0.1333333333333333 0.53 0 0.1333333333333333 0.52 -1.850371707708594e-18 0.09999999999999998 0.5600000000000001 0.1666666666666667 0.2 0.55 0.1333333333333333 0.1666666666666667 0.52 0.06666666666666667 0.1333333333333333 0.53 0.06666666666666665 0.1333333333333333 0.52 0.06666666666666665 0.09999999999999998 0.52 0.03333333333333333 0.1 0.5 0 0.06666666666666667 0.51 0.03333333333333333 0.06666666666666665 0.51 0 0.06666666666666665 0.4999999999999999 -1.850371707708594e-18 0.03333333333333333 0.54 0.2 0.03333333333333333 0.55 0.2 0.09999999999999998 0.53 0.1666666666666667 0.03333333333333333 0.52 0.1333333333333333 0.03333333333333333 0.55 0.1666666666666667 0.1666666666666667 0.54 0.2 0.1333333333333333 0.55 0.2 0.1333333333333333 0.54 0.1666666666666667 0.1333333333333333 0.54 0.1666666666666667 0.09999999999999999 0.53 0.1333333333333333 0.09999999999999999 0.51 0.09999999999999999 0.03333333333333333 0.5 0.06666666666666667 0.06666666666666667 0.51 0.06666666666666665 0.06666666666666665 0.4999999999999999 0.06666666666666665 0.03333333333333333 0.5 0.03333333333333333 0.03333333333333333 0.54 0.03333333333333333 0.2 0.55 0.1 0.2 0.53 0.03333333333333333 0.1666666666666667 0.52 0.03333333333333333 0.1333333333333333 0.54 0.1333333333333333 0.2 0.55 0.1333333333333333 0.2 0.54 0.1333333333333333 0.1666666666666667 0.54 0.1 0.1666666666666667 0.53 0.09999999999999999 0.1333333333333333 0.51 0.03333333333333333 0.09999999999999999 0.5 0.03333333333333333 0.06666666666666667 0.53 0.1666666666666667 0 0.54 0.2 0.09999999999999999 0.53 0.1666666666666667 0.06666666666666665 0.51 0.09999999999999999 0 0.55 0.2 0.1666666666666667 0.53 0.1666666666666667 0.09999999999999999 0.52 0.1333333333333333 0.1333333333333333 0.53 0.1333333333333333 0.1333333333333333 0.52 0.1333333333333333 0.09999999999999998 0.52 0.1 0.1 0.51 0.09999999999999999 0.06666666666666665 0.48 0 0 0.49 0.03333333333333333 0.03333333333333333 0.49 0.03333333333333333 0 0.49 0 0 0.53 0 0.1666666666666667 0.54 0.1 0.2 0.53 0.06666666666666665 0.1666666666666667 0.51 0 0.09999999999999999 0.55 0.1666666666666667 0.2 0.53 0.1 0.1666666666666667 0.52 0.1 0.1333333333333333 0.51 0.06666666666666665 0.09999999999999999 0.49 0 0.03333333333333333 0.52 0.2 0 0.53 0.2 0.03333333333333333 0.53 0.2 0 0.52 0.1666666666666667 0 0.52 0.2 0.06666666666666667 0.53 0.2 0.06666666666666667 0.52 0.1666666666666667 0.06666666666666667 0.52 0.1666666666666667 0.03333333333333333 0.5 0.1333333333333333 0 0.51 0.1333333333333333 0.03333333333333333 0.51 0.1333333333333333 0 0.5 0.1 0 0.54 0.2 0.2 0.55 0.2 0.2 0.54 0.2 0.1666666666666667 0.54 0.1666666666666667 0.1666666666666667 0.53 0.1666666666666667 0.1333333333333333 0.51 0.1 0.09999999999999999 0.5 0.1333333333333333 0.06666666666666667 0.51 0.1333333333333333 0.06666666666666665 0.5 0.1 0.06666666666666667 0.4999999999999999 0.09999999999999998 0.03333333333333333 0.48 0.06666666666666667 0 0.49 0.06666666666666665 0.03333333333333333 0.49 0.06666666666666665 0 0.48 0.03333333333333333 0 0.52 0 0.2 0.53 0.03333333333333333 0.2 0.53 -1.850371707708594e-18 0.2 0.52 -1.850371707708594e-18 0.1666666666666667 0.52 0.06666666666666667 0.2 0.53 0.06666666666666665 0.2 0.52 0.06666666666666665 0.1666666666666667 0.52 0.03333333333333333 0.1666666666666667 0.5 0 0.1333333333333333 0.51 0.03333333333333333 0.1333333333333333 0.51 0 0.1333333333333333 0.4999999999999999 -1.850371707708594e-18 0.09999999999999998 0.54 0.1666666666666667 0.2 0.53 0.1333333333333333 0.1666666666666667 0.5 0.06666666666666667 0.1333333333333333 0.51 0.06666666666666665 0.1333333333333333 0.4999999999999999 0.06666666666666665 0.09999999999999998 0.5 0.03333333333333333 0.1 0.48 0 0.06666666666666667 0.49 0.03333333333333333 0.06666666666666665 0.49 0 0.06666666666666665 0.48 -1.850371707708594e-18 0.03333333333333333 0.52 0.2 0.03333333333333333 0.53 0.2 0.09999999999999998 0.51 0.1666666666666667 0.03333333333333333 0.4999999999999999 0.1333333333333333 0.03333333333333333 0.53 0.1666666666666667 0.1666666666666667 0.52 0.2 0.1333333333333333 0.53 0.2 0.1333333333333333 0.52 0.1666666666666667 0.1333333333333333 0.52 0.1666666666666667 0.09999999999999999 0.51 0.1333333333333333 0.09999999999999999 0.49 0.09999999999999999 0.03333333333333333 0.48 0.06666666666666667 0.06666666666666667 0.49 0.06666666666666665 0.06666666666666665 0.48 0.06666666666666665 0.03333333333333333 0.48 0.03333333333333333 0.03333333333333333 0.52 0.03333333333333333 0.2 0.53 0.1 0.2 0.51 0.03333333333333333 0.1666666666666667 0.5 0.03333333333333333 0.1333333333333333 0.52 0.1333333333333333 0.2 0.53 0.1333333333333333 0.2 0.52 0.1333333333333333 0.1666666666666667 0.52 0.1 0.1666666666666667 0.51 0.09999999999999999 0.1333333333333333 0.49 0.03333333333333333 0.09999999999999999 0.48 0.03333333333333333 0.06666666666666667 0.51 0.1666666666666667 0 0.52 0.2 0.09999999999999999 0.51 0.1666666666666667 0.06666666666666665 0.49 0.09999999999999999 0 0.53 0.2 0.1666666666666667 0.51 0.1666666666666667 0.09999999999999999 0.5 0.1333333333333333 0.1333333333333333 0.51 0.1333333333333333 0.1333333333333333 0.4999999999999999 0.1333333333333333 0.09999999999999998 0.5 0.1 0.1 0.49 0.09999999999999999 0.06666666666666665 0.46 0 0 0.47 0.03333333333333333 0.03333333333333333 0.47 0.03333333333333333 0 0.47 0 0 0.51 0 0.1666666666666667 0.52 0.1 0.2 0.51 0.06666666666666665 0.1666666666666667 0.49 0 0.09999999999999999 0.53 0.1666666666666667 0.2 0.51 0.1 0.1666666666666667 0.5 0.1 0.1333333333333333 0.49 0.06666666666666665 0.09999999999999999 0.47 0 0.03333333333333333 0.5 0.2 0 0.51 0.2 0.03333333333333333 0.51 0.2 0 0.5 0.1666666666666667 0 0.5 0.2 0.06666666666666667 0.51 0.2 0.06666666666666667 0.5 0.1666666666666667 0.06666666666666667 0.4999999999999999 0.1666666666666667 0.03333333333333333 0.48 0.1333333333333333 0 0.49 0.1333333333333333 0.03333333333333333 0.49 0.1333333333333333 0 0.48 0.1 0 0.52 0.2 0.2 0.53 0.2 0.2 0.52 0.2 0.1666666666666667 0.52 0.1666666666666667 0.1666666666666667 0.51 0.1666666666666667 0.1333333333333333 0.49 0.1 0.09999999999999999 0.48 0.1333333333333333 0.06666666666666667 0.49 0.1333333333333333 0.06666666666666665 0.48 0.1 0.06666666666666667 0.48 0.09999999999999998 0.03333333333333333 0.46 0.06666666666666667 0 0.47 0.06666666666666665 0.03333333333333333 0.47 0.06666666666666665 0 0.46 0.03333333333333333 0 0.5 0 0.2 0.51 0.03333333333333333 0.2 0.51 -1.850371707708594e-18 0.2 0.4999999999999999 -1.850371707708594e-18 0.1666666666666667 0.5 0.06666666666666667 0.2 0.51 0.06666666666666665 0.2 0.4999999999999999 0.06666666666666665 0.1666666666666667 0.5 0.03333333333333333 0.1666666666666667 0.48 0 0.1333333333333333 0.49 0.03333333333333333 0.1333333333333333 0.49 0 0.1333333333333333 0.48 -1.850371707708594e-18 0.09999999999999998 0.52 0.1666666666666667 0.2 0.51 0.1333333333333333 0.1666666666666667 0.48 0.06666666666666667 0.1333333333333333 0.49 0.06666666666666665 0.1333333333333333 0.48 0.06666666666666665 0.09999999999999998 0.48 0.03333333333333333 0.1 0.46 0 0.06666666666666667 0.47 0.03333333333333333 0.06666666666666665 0.47 0 0.06666666666666665 0.46 -1.850371707708594e-18 0.03333333333333333 0.5 0.2 0.03333333333333333 0.51 0.2 0.09999999999999998 0.49 0.1666666666666667 0.03333333333333333 0.48 0.1333333333333333 0.03333333333333333 0.51 0.1666666666666667 0.1666666666666667 0.5 0.2 0.1333333333333333 0.51 0.2 0.1333333333333333 0.5 0.1666666666666667 0.1333333333333333 0.4999999999999999 0.1666666666666667 0.09999999999999999 0.49 0.1333333333333333 0.09999999999999999 0.47 0.09999999999999999 0.03333333333333333 0.46 0.06666666666666667 0.06666666666666667 0.47 0.06666666666666665 0.06666666666666665 0.46 0.06666666666666665 0.03333333333333333 0.46 0.03333333333333333 0.03333333333333333 0.5 0.03333333333333333 0.2 0.51 0.1 0.2 0.49 0.03333333333333333 0.1666666666666667 0.48 0.03333333333333333 0.1333333333333333 0.5 0.1333333333333333 0.2 0.51 0.1333333333333333 0.2 0.4999999999999999 0.1333333333333333 0.1666666666666667 0.5 0.1 0.1666666666666667 0.49 0.09999999999999999 0.1333333333333333 0.47 0.03333333333333333 0.09999999999999999 0.46 0.03333333333333333 0.06666666666666667 0.49 0.1666666666666667 0 0.5 0.2 0.09999999999999999 0.49 0.1666666666666667 0.06666666666666665 0.47 0.09999999999999999 0 0.51 0.2 0.1666666666666667 0.49 0.1666666666666667 0.09999999999999999 0.48 0.1333333333333333 0.1333333333333333 0.49 0.1333333333333333 0.1333333333333333 0.48 0.1333333333333333 0.09999999999999998 0.48 0.1 0.1 0.47 0.09999999999999999 0.06666666666666665 0.44 0 0 0.45 0.03333333333333333 0.03333333333333333 0.45 0.03333333333333333 0 0.45 0 0 0.49 0 0.1666666666666667 0.5 0.1 0.2 0.49 0.06666666666666665 0.1666666666666667 0.47 0 0.09999999999999999 0.51 0.1666666666666667 0.2 0.49 0.1 0.1666666666666667 0.48 0.1 0.1333333333333333 0.47 0.06666666666666665 0.09999999999999999 0.45 0 0.03333333333333333 0.48 0.2 0 0.49 0.2 0.03333333333333333 0.49 0.2 0 0.48 0.1666666666666667 0 0.48 0.2 0.06666666666666667 0.49 0.2 0.06666666666666667 0.48 0.1666666666666667 0.06666666666666667 0.48 0.1666666666666667 0.03333333333333333 0.46 0.1333333333333333 0 0.47 0.1333333333333333 0.03333333333333333 0.47 0.1333333333333333 0 0.46 0.1 0 0.5 0.2 0.2 0.51 0.2 0.2 0.5 0.2 0.1666666666666667 0.5 0.1666666666666667 0.1666666666666667 0.49 0.1666666666666667 0.1333333333333333 0.47 0.1 0.09999999999999999 0.46 0.1333333333333333 0.06666666666666667 0.47 0.1333333333333333 0.06666666666666665 0.46 0.1 0.06666666666666667 0.46 0.09999999999999998 0.03333333333333333 0.44 0.06666666666666667 0 0.45 0.06666666666666665 0.03333333333333333 0.45 0.06666666666666665 0 0.44 0.03333333333333333 0 0.48 0 0.2 0.49 0.03333333333333333 0.2 0.4899999999999999 -1.850371707708594e-18 0.2 0.48 -1.850371707708594e-18 0.1666666666666667 0.48 0.06666666666666667 0.2 0.4899999999999999 0.06666666666666665 0.2 0.48 0.06666666666666665 0.1666666666666667 0.48 0.03333333333333333 0.1666666666666667 0.46 0 0.1333333333333333 0.47 0.03333333333333333 0.1333333333333333 0.47 0 0.1333333333333333 0.46 -1.850371707708594e-18 0.09999999999999998 0.5 0.1666666666666667 0.2 0.49 0.1333333333333333 0.1666666666666667 0.46 0.06666666666666667 0.1333333333333333 0.47 0.06666666666666665 0.1333333333333333 0.46 0.06666666666666665 0.09999999999999998 0.46 0.03333333333333333 0.1 0.44 0 0.06666666666666667 0.45 0.03333333333333333 0.06666666666666665 0.45 0 0.06666666666666665 0.4399999999999999 -1.850371707708594e-18 0.03333333333333333 0.48 0.2 0.03333333333333333 0.49 0.2 0.09999999999999998 0.47 0.1666666666666667 0.03333333333333333 0.46 0.1333333333333333 0.03333333333333333 0.49 0.1666666666666667 0.1666666666666667 0.48 0.2 0.1333333333333333 0.49 0.2 0.1333333333333333 0.48 0.1666666666666667 0.1333333333333333 0.48 0.1666666666666667 0.09999999999999999 0.47 0.1333333333333333 0.09999999999999999 0.45 0.09999999999999999 0.03333333333333333 0.44 0.06666666666666667 0.06666666666666667 0.45 0.06666666666666665 0.06666666666666665 0.4399999999999999 0.06666666666666665 0.03333333333333333 0.44 0.03333333333333333 0.03333333333333333 0.48 0.03333333333333333 0.2 0.49 0.1 0.2 0.47 0.03333333333333333 0.1666666666666667 0.46 0.03333333333333333 0.1333333333333333 0.48 0.1333333333333333 0.2 0.4899999999999999 0.1333333333333333 0.2 0.48 0.1333333333333333 0.1666666666666667 0.48 0.1 0.1666666666666667 0.47 0.09999999999999999 0.1333333333333333 0.45 0.03333333333333333 0.09999999999999999 0.44 0.03333333333333333 0.06666666666666667 0.47 0.1666666666666667 0 0.48 0.2 0.09999999999999999 0.47 0.1666666666666667 0.06666666666666665 0.45 0.09999999999999999 0 0.49 0.2 0.1666666666666667 0.47 0.1666666666666667 0.09999999999999999 0.46 0.1333333333333333 0.1333333333333333 0.47 0.1333333333333333 0.1333333333333333 0.46 0.1333333333333333 0.09999999999999998 0.46 0.1 0.1 0.45 0.09999999999999999 0.06666666666666665 0.42 0 0 0.43 0.03333333333333333 0.03333333333333333 0.4299999999999999 0.03333333333333333 0 0.4299999999999999 0 0 0.47 0 0.1666666666666667 0.48 0.1 0.2 0.47 0.06666666666666665 0.1666666666666667 0.45 0 0.09999999999999999 0.49 0.1666666666666667 0.2 0.47 0.1 0.1666666666666667 0.46 0.1 0.1333333333333333 0.45 0.06666666666666665 0.09999999999999999 0.4299999999999999 0 0.03333333333333333 0.46 0.2 0 0.47 0.2 0.03333333333333333 0.47 0.2 0 0.46 0.1666666666666667 0 0.46 0.2 0.06666666666666667 0.47 0.2 0.06666666666666667 0.46 0.1666666666666667 0.06666666666666667 0.46 0.1666666666666667 0.03333333333333333 0.44 0.1333333333333333 0 0.45 0.1333333333333333 0.03333333333333333 0.45 0.1333333333333333 0 0.44 0.1 0 0.48 0.2 0.2 0.49 0.2 0.2 0.48 0.2 0.1666666666666667 0.48 0.1666666666666667 0.1666666666666667 0.47 0.1666666666666667 0.1333333333333333 0.45 0.1 0.09999999999999999 0.44 0.1333333333333333 0.06666666666666667 0.45 0.1333333333333333 0.06666666666666665 0.44 0.1 0.06666666666666667 0.4399999999999999 0.09999999999999998 0.03333333333333333 0.42 0.06666666666666667 0 0.4299999999999999 0.06666666666666665 0.03333333333333333 0.4299999999999999 0.06666666666666665 0 0.42 0.03333333333333333 0 0.46 0 0.2 0.47 0.03333333333333333 0.2 0.47 -1.850371707708594e-18 0.2 0.46 -1.850371707708594e-18 0.1666666666666667 0.46 0.06666666666666667 0.2 0.47 0.06666666666666665 0.2 0.46 0.06666666666666665 0.1666666666666667 0.46 0.03333333333333333 0.1666666666666667 0.44 0 0.1333333333333333 0.45 0.03333333333333333 0.1333333333333333 0.45 0 0.1333333333333333 0.4399999999999999 -1.850371707708594e-18 0.09999999999999998 0.48 0.1666666666666667 0.2 0.47 0.1333333333333333 0.1666666666666667 0.44 0.06666666666666667 0.1333333333333333 0.45 0.06666666666666665 0.1333333333333333 0.4399999999999999 0.06666666666666665 0.09999999999999998 0.44 0.03333333333333333 0.1 0.42 0 0.06666666666666667 0.4299999999999999 0.03333333333333333 0.06666666666666665 0.4299999999999999 0 0.06666666666666665 0.4199999999999999 -1.850371707708594e-18 0.03333333333333333 0.46 0.2 0.03333333333333333 0.47 0.2 0.09999999999999998 0.45 0.1666666666666667 0.03333333333333333 0.4399999999999999 0.1333333333333333 0.03333333333333333 0.47 0.1666666666666667 0.1666666666666667 0.46 0.2 0.1333333333333333 0.47 0.2 0.1333333333333333 0.46 0.1666666666666667 0.1333333333333333 0.46 0.1666666666666667 0.09999999999999999 0.45 0.1333333333333333 0.09999999999999999 0.43 0.09999999999999999 0.03333333333333333 0.42 0.06666666666666667 0.06666666666666667 0.4299999999999999 0.06666666666666665 0.06666666666666665 0.4199999999999999 0.06666666666666665 0.03333333333333333 0.42 0.03333333333333333 0.03333333333333333 0.46 0.03333333333333333 0.2 0.47 0.1 0.2 0.45 0.03333333333333333 0.1666666666666667 0.44 0.03333333333333333 0.1333333333333333 0.46 0.1333333333333333 0.2 0.47 0.1333333333333333 0.2 0.46 0.1333333333333333 0.1666666666666667 0.46 0.1 0.1666666666666667 0.45 0.09999999999999999 0.1333333333333333 0.43 0.03333333333333333 0.09999999999999999 0.42 0.03333333333333333 0.06666666666666667 0.45 0.1666666666666667 0 0.46 0.2 0.09999999999999999 0.45 0.1666666666666667 0.06666666666666665 0.4299999999999999 0.09999999999999999 0 0.47 0.2 0.1666666666666667 0.45 0.1666666666666667 0.09999999999999999 0.44 0.1333333333333333 0.1333333333333333 0.45 0.1333333333333333 0.1333333333333333 0.4399999999999999 0.1333333333333333 0.09999999999999998 0.44 0.1 0.1 0.4299999999999999 0.09999999999999999 0.06666666666666665 0.4 0 0 0.41 0.03333333333333333 0.03333333333333333 0.41 0.03333333333333333 0 0.41 0 0 0.45 0 0.1666666666666667 0.46 0.1 0.2 0.45 0.06666666666666665 0.1666666666666667 0.4299999999999999 0 0.09999999999999999 0.47 0.1666666666666667 0.2 0.45 0.1 0.1666666666666667 0.44 0.1 0.1333333333333333 0.4299999999999999 0.06666666666666665 0.09999999999999999 0.41 0 0.03333333333333333 0.44 0.2 0 0.45 0.2 0.03333333333333333 0.45 0.2 0 0.44 0.1666666666666667 0 0.44 0.2 0.06666666666666667 0.45 0.2 0.06666666666666667 0.44 0.1666666666666667 0.06666666666666667 0.4399999999999999 0.1666666666666667 0.03333333333333333 0.42 0.1333333333333333 0 0.4299999999999999 0.1333333333333333 0.03333333333333333 0.4299999999999999 0.1333333333333333 0 0.42 0.1 0 0.46 0.2 0.2 0.47 0.2 0.2 0.46 0.2 0.1666666666666667 0.46 0.1666666666666667 0.1666666666666667 0.45 0.1666666666666667 0.1333333333333333 0.43 0.1 0.09999999999999999 0.42 0.1333333333333333 0.06666666666666667 0.4299999999999999 0.1333333333333333 0.06666666666666665 0.42 0.1 0.06666666666666667 0.4199999999999999 0.09999999999999998 0.03333333333333333 0.4 0.06666666666666667 0 0.41 0.06666666666666665 0.03333333333333333 0.41 0.06666666666666665 0 0.4 0.03333333333333333 0 0.44 0 0.2 0.4500000000000001 0.03333333333333333 0.2 0.45 -1.850371707708594e-18 0.2 0.4399999999999999 -1.850371707708594e-18 0.1666666666666667 0.44 0.06666666666666667 0.2 0.45 0.06666666666666665 0.2 0.4399999999999999 0.06666666666666665 0.1666666666666667 0.44 0.03333333333333333 0.1666666666666667 0.42 0 0.1333333333333333 0.4299999999999999 0.03333333333333333 0.1333333333333333 0.4299999999999999 0 0.1333333333333333 0.4199999999999999 -1.850371707708594e-18 0.09999999999999998 0.46 0.1666666666666667 0.2 0.45 0.1333333333333333 0.1666666666666667 0.42 0.06666666666666667 0.1333333333333333 0.4299999999999999 0.06666666666666665 0.1333333333333333 0.4199999999999999 0.06666666666666665 0.09999999999999998 0.42 0.03333333333333333 0.1 0.4 0 0.06666666666666667 0.41 0.03333333333333333 0.06666666666666665 0.41 0 0.06666666666666665 0.4 -1.850371707708594e-18 0.03333333333333333 0.4399999999999999 0.2 0.03333333333333333 0.45 0.2 0.09999999999999998 0.43 0.1666666666666667 0.03333333333333333 0.4199999999999999 0.1333333333333333 0.03333333333333333 0.45 0.1666666666666667 0.1666666666666667 0.44 0.2 0.1333333333333333 0.45 0.2 0.1333333333333333 0.44 0.1666666666666667 0.1333333333333333 0.4399999999999999 0.1666666666666667 0.09999999999999999 0.4299999999999999 0.1333333333333333 0.09999999999999999 0.41 0.09999999999999999 0.03333333333333333 0.4 0.06666666666666667 0.06666666666666667 0.41 0.06666666666666665 0.06666666666666665 0.4 0.06666666666666665 0.03333333333333333 0.4 0.03333333333333333 0.03333333333333333 0.44 0.03333333333333333 0.2 0.4500000000000001 0.1 0.2 0.43 0.03333333333333333 0.1666666666666667 0.42 0.03333333333333333 0.1333333333333333 0.44 0.1333333333333333 0.2 0.45 0.1333333333333333 0.2 0.4399999999999999 0.1333333333333333 0.1666666666666667 0.44 0.1 0.1666666666666667 0.4299999999999999 0.09999999999999999 0.1333333333333333 0.41 0.03333333333333333 0.09999999999999999 0.4 0.03333333333333333 0.06666666666666667 0.4299999999999999 0.1666666666666667 0 0.4399999999999999 0.2 0.09999999999999999 0.4299999999999999 0.1666666666666667 0.06666666666666665 0.41 0.09999999999999999 0 0.45 0.2 0.1666666666666667 0.43 0.1666666666666667 0.09999999999999999 0.42 0.1333333333333333 0.1333333333333333 0.4299999999999999 0.1333333333333333 0.1333333333333333 0.4199999999999999 0.1333333333333333 0.09999999999999998 0.42 0.1 0.1 0.41 0.09999999999999999 0.06666666666666665 0.38 0 0 0.39 0.03333333333333333 0.03333333333333333 0.39 0.03333333333333333 0 0.39 0 0 0.4299999999999999 0 0.1666666666666667 0.44 0.1 0.2 0.4299999999999999 0.06666666666666665 0.1666666666666667 0.41 0 0.09999999999999999 0.4500000000000001 0.1666666666666667 0.2 0.43 0.1 0.1666666666666667 0.42 0.1 0.1333333333333333 0.41 0.06666666666666665 0.09999999999999999 0.39 0 0.03333333333333333 0.42 0.2 0 0.4299999999999999 0.2 0.03333333333333333 0.43 0.2 0 0.42 0.1666666666666667 0 0.42 0.2 0.06666666666666667 0.43 0.2 0.06666666666666667 0.42 0.1666666666666667 0.06666666666666667 0.4199999999999999 0.1666666666666667 0.03333333333333333 0.4 0.1333333333333333 0 0.41 0.1333333333333333 0.03333333333333333 0.41 0.1333333333333333 0 0.4 0.1 0 0.44 0.2 0.2 0.45 0.2 0.2 0.4399999999999999 0.2 0.1666666666666667 0.44 0.1666666666666667 0.1666666666666667 0.4299999999999999 0.1666666666666667 0.1333333333333333 0.41 0.1 0.09999999999999999 0.4 0.1333333333333333 0.06666666666666667 0.41 0.1333333333333333 0.06666666666666665 0.4 0.1 0.06666666666666667 0.4 0.09999999999999998 0.03333333333333333 0.38 0.06666666666666667 0 0.39 0.06666666666666665 0.03333333333333333 0.39 0.06666666666666665 0 0.38 0.03333333333333333 0 0.42 0 0.2 0.43 0.03333333333333333 0.2 0.4299999999999999 -1.850371707708594e-18 0.2 0.4199999999999999 -1.850371707708594e-18 0.1666666666666667 0.42 0.06666666666666667 0.2 0.4299999999999999 0.06666666666666665 0.2 0.4199999999999999 0.06666666666666665 0.1666666666666667 0.42 0.03333333333333333 0.1666666666666667 0.4 0 0.1333333333333333 0.41 0.03333333333333333 0.1333333333333333 0.41 0 0.1333333333333333 0.4 -1.850371707708594e-18 0.09999999999999998 0.44 0.1666666666666667 0.2 0.4299999999999999 0.1333333333333333 0.1666666666666667 0.4 0.06666666666666667 0.1333333333333333 0.41 0.06666666666666665 0.1333333333333333 0.4 0.06666666666666665 0.09999999999999998 0.4 0.03333333333333333 0.1 0.38 0 0.06666666666666667 0.39 0.03333333333333333 0.06666666666666665 0.39 0 0.06666666666666665 0.38 -1.850371707708594e-18 0.03333333333333333 0.4199999999999999 0.2 0.03333333333333333 0.4299999999999999 0.2 0.09999999999999998 0.41 0.1666666666666667 0.03333333333333333 0.4 0.1333333333333333 0.03333333333333333 0.43 0.1666666666666667 0.1666666666666667 0.42 0.2 0.1333333333333333 0.43 0.2 0.1333333333333333 0.42 0.1666666666666667 0.1333333333333333 0.4199999999999999 0.1666666666666667 0.09999999999999999 0.41 0.1333333333333333 0.09999999999999999 0.39 0.09999999999999999 0.03333333333333333 0.38 0.06666666666666667 0.06666666666666667 0.39 0.06666666666666665 0.06666666666666665 0.38 0.06666666666666665 0.03333333333333333 0.38 0.03333333333333333 0.03333333333333333 0.42 0.03333333333333333 0.2 0.43 0.1 0.2 0.41 0.03333333333333333 0.1666666666666667 0.4 0.03333333333333333 0.1333333333333333 0.42 0.1333333333333333 0.2 0.4299999999999999 0.1333333333333333 0.2 0.4199999999999999 0.1333333333333333 0.1666666666666667 0.42 0.1 0.1666666666666667 0.41 0.09999999999999999 0.1333333333333333 0.39 0.03333333333333333 0.09999999999999999 0.38 0.03333333333333333 0.06666666666666667 0.41 0.1666666666666667 0 0.4199999999999999 0.2 0.09999999999999999 0.41 0.1666666666666667 0.06666666666666665 0.39 0.09999999999999999 0 0.4299999999999999 0.2 0.1666666666666667 0.41 0.1666666666666667 0.09999999999999999 0.4 0.1333333333333333 0.1333333333333333 0.41 0.1333333333333333 0.1333333333333333 0.4 0.1333333333333333 0.09999999999999998 0.4 0.1 0.1 0.39 0.09999999999999999 0.06666666666666665 0.36 0 0 0.37 0.03333333333333333 0.03333333333333333 0.37 0.03333333333333333 0 0.37 0 0 0.41 0 0.1666666666666667 0.42 0.1 0.2 0.41 0.06666666666666665 0.1666666666666667 0.39 0 0.09999999999999999 0.43 0.1666666666666667 0.2 0.41 0.1 0.1666666666666667 0.4 0.1 0.1333333333333333 0.39 0.06666666666666665 0.09999999999999999 0.37 0 0.03333333333333333 0.4 0.2 0 0.41 0.2 0.03333333333333333 0.41 0.2 0 0.4 0.1666666666666667 0 0.4 0.2 0.06666666666666667 0.41 0.2 0.06666666666666667 0.4 0.1666666666666667 0.06666666666666667 0.4 0.1666666666666667 0.03333333333333333 0.38 0.1333333333333333 0 0.39 0.1333333333333333 0.03333333333333333 0.39 0.1333333333333333 0 0.38 0.1 0 0.42 0.2 0.2 0.4299999999999999 0.2 0.2 0.4199999999999999 0.2 0.1666666666666667 0.42 0.1666666666666667 0.1666666666666667 0.41 0.1666666666666667 0.1333333333333333 0.39 0.1 0.09999999999999999 0.38 0.1333333333333333 0.06666666666666667 0.39 0.1333333333333333 0.06666666666666665 0.38 0.1 0.06666666666666667 0.38 0.09999999999999998 0.03333333333333333 0.36 0.06666666666666667 0 0.37 0.06666666666666665 0.03333333333333333 0.37 0.06666666666666665 0 0.36 0.03333333333333333 0 0.4 0 0.2 0.41 0.03333333333333333 0.2 0.41 -1.850371707708594e-18 0.2 0.4 -1.850371707708594e-18 0.1666666666666667 0.4 0.06666666666666667 0.2 0.41 0.06666666666666665 0.2 0.4 0.06666666666666665 0.1666666666666667 0.4 0.03333333333333333 0.1666666666666667 0.38 0 0.1333333333333333 0.39 0.03333333333333333 0.1333333333333333 0.39 0 0.1333333333333333 0.38 -1.850371707708594e-18 0.09999999999999998 0.42 0.1666666666666667 0.2 0.41 0.1333333333333333 0.1666666666666667 0.38 0.06666666666666667 0.1333333333333333 0.39 0.06666666666666665 0.1333333333333333 0.38 0.06666666666666665 0.09999999999999998 0.38 0.03333333333333333 0.1 0.36 0 0.06666666666666667 0.37 0.03333333333333333 0.06666666666666665 0.37 0 0.06666666666666665 0.36 -1.850371707708594e-18 0.03333333333333333 0.4 0.2 0.03333333333333333 0.41 0.2 0.09999999999999998 0.39 0.1666666666666667 0.03333333333333333 0.38 0.1333333333333333 0.03333333333333333 0.41 0.1666666666666667 0.1666666666666667 0.4 0.2 0.1333333333333333 0.41 0.2 0.1333333333333333 0.4 0.1666666666666667 0.1333333333333333 0.4 0.1666666666666667 0.09999999999999999 0.39 0.1333333333333333 0.09999999999999999 0.37 0.09999999999999999 0.03333333333333333 0.36 0.06666666666666667 0.06666666666666667 0.37 0.06666666666666665 0.06666666666666665 0.36 0.06666666666666665 0.03333333333333333 0.36 0.03333333333333333 0.03333333333333333 0.4 0.03333333333333333 0.2 0.41 0.1 0.2 0.39 0.03333333333333333 0.1666666666666667 0.38 0.03333333333333333 0.1333333333333333 0.4 0.1333333333333333 0.2 0.41 0.1333333333333333 0.2 0.4 0.1333333333333333 0.1666666666666667 0.4 0.1 0.1666666666666667 0.39 0.09999999999999999 0.1333333333333333 0.37 0.03333333333333333 0.09999999999999999 0.36 0.03333333333333333 0.06666666666666667 0.39 0.1666666666666667 0 0.4 0.2 0.09999999999999999 0.39 0.1666666666666667 0.06666666666666665 0.37 0.09999999999999999 0 0.41 0.2 0.1666666666666667 0.39 0.1666666666666667 0.09999999999999999 0.38 0.1333333333333333 0.1333333333333333 0.39 0.1333333333333333 0.1333333333333333 0.38 0.1333333333333333 0.09999999999999998 0.38 0.1 0.1 0.37 0.09999999999999999 0.06666666666666665 0.34 0 0 0.35 0.03333333333333333 0.03333333333333333 0.35 0.03333333333333333 0 0.35 0 0 0.39 0 0.1666666666666667 0.4 0.1 0.2 0.39 0.06666666666666665 0.1666666666666667 0.37 0 0.09999999999999999 0.41 0.1666666666666667 0.2 0.39 0.1 0.1666666666666667 0.38 0.1 0.1333333333333333 0.37 0.06666666666666665 0.09999999999999999 0.35 0 0.03333333333333333 0.38 0.2 0 0.39 0.2 0.03333333333333333 0.39 0.2 0 0.38 0.1666666666666667 0 0.38 0.2 0.06666666666666667 0.39 0.2 0.06666666666666667 0.38 0.1666666666666667 0.06666666666666667 0.38 0.1666666666666667 0.03333333333333333 0.36 0.1333333333333333 0 0.37 0.1333333333333333 0.03333333333333333 0.37 0.1333333333333333 0 0.36 0.1 0 0.4 0.2 0.2 0.41 0.2 0.2 0.4 0.2 0.1666666666666667 0.4 0.1666666666666667 0.1666666666666667 0.39 0.1666666666666667 0.1333333333333333 0.37 0.1 0.09999999999999999 0.36 0.1333333333333333 0.06666666666666667 0.37 0.1333333333333333 0.06666666666666665 0.36 0.1 0.06666666666666667 0.36 0.09999999999999998 0.03333333333333333 0.34 0.06666666666666667 0 0.35 0.06666666666666665 0.03333333333333333 0.35 0.06666666666666665 0 0.34 0.03333333333333333 0 0.38 0 0.2 0.39 0.03333333333333333 0.2 0.39 -1.850371707708594e-18 0.2 0.38 -1.850371707708594e-18 0.1666666666666667 0.38 0.06666666666666667 0.2 0.39 0.06666666666666665 0.2 0.38 0.06666666666666665 0.1666666666666667 0.38 0.03333333333333333 0.1666666666666667 0.36 0 0.1333333333333333 0.37 0.03333333333333333 0.1333333333333333 0.37 0 0.1333333333333333 0.36 -1.850371707708594e-18 0.09999999999999998 0.4 0.1666666666666667 0.2 0.39 0.1333333333333333 0.1666666666666667 0.36 0.06666666666666667 0.1333333333333333 0.37 0.06666666666666665 0.1333333333333333 0.36 0.06666666666666665 0.09999999999999998 0.36 0.03333333333333333 0.1 0.34 0 0.06666666666666667 0.35 0.03333333333333333 0.06666666666666665 0.35 0 0.06666666666666665 0.34 -1.850371707708594e-18 0.03333333333333333 0.38 0.2 0.03333333333333333 0.39 0.2 0.09999999999999998 0.37 0.1666666666666667 0.03333333333333333 0.36 0.1333333333333333 0.03333333333333333 0.39 0.1666666666666667 0.1666666666666667 0.38 0.2 0.1333333333333333 0.39 0.2 0.1333333333333333 0.38 0.1666666666666667 0.1333333333333333 0.38 0.1666666666666667 0.09999999999999999 0.37 0.1333333333333333 0.09999999999999999 0.35 0.09999999999999999 0.03333333333333333 0.34 0.06666666666666667 0.06666666666666667 0.35 0.06666666666666665 0.06666666666666665 0.34 0.06666666666666665 0.03333333333333333 0.34 0.03333333333333333 0.03333333333333333 0.38 0.03333333333333333 0.2 0.39 0.1 0.2 0.37 0.03333333333333333 0.1666666666666667 0.36 0.03333333333333333 0.1333333333333333 0.38 0.1333333333333333 0.2 0.39 0.1333333333333333 0.2 0.38 0.1333333333333333 0.1666666666666667 0.38 0.1 0.1666666666666667 0.37 0.09999999999999999 0.1333333333333333 0.35 0.03333333333333333 0.09999999999999999 0.34 0.03333333333333333 0.06666666666666667 0.37 0.1666666666666667 0 0.38 0.2 0.09999999999999999 0.37 0.1666666666666667 0.06666666666666665 0.35 0.09999999999999999 0 0.39 0.2 0.1666666666666667 0.37 0.1666666666666667 0.09999999999999999 0.36 0.1333333333333333 0.1333333333333333 0.37 0.1333333333333333 0.1333333333333333 0.36 0.1333333333333333 0.09999999999999998 0.36 0.1 0.1 0.35 0.09999999999999999 0.06666666666666665 0.32 0 0 0.33 0.03333333333333333 0.03333333333333333 0.33 0.03333333333333333 0 0.33 0 0 0.37 0 0.1666666666666667 0.38 0.1 0.2 0.37 0.06666666666666665 0.1666666666666667 0.35 0 0.09999999999999999 0.39 0.1666666666666667 0.2 0.37 0.1 0.1666666666666667 0.36 0.1 0.1333333333333333 0.35 0.06666666666666665 0.09999999999999999 0.33 0 0.03333333333333333 0.36 0.2 0 0.37 0.2 0.03333333333333333 0.37 0.2 0 0.36 0.1666666666666667 0 0.36 0.2 0.06666666666666667 0.37 0.2 0.06666666666666667 0.36 0.1666666666666667 0.06666666666666667 0.36 0.1666666666666667 0.03333333333333333 0.34 0.1333333333333333 0 0.35 0.1333333333333333 0.03333333333333333 0.35 0.1333333333333333 0 0.34 0.1 0 0.38 0.2 0.2 0.39 0.2 0.2 0.38 0.2 0.1666666666666667 0.38 0.1666666666666667 0.1666666666666667 0.37 0.1666666666666667 0.1333333333333333 0.35 0.1 0.09999999999999999 0.34 0.1333333333333333 0.06666666666666667 0.35 0.1333333333333333 0.06666666666666665 0.34 0.1 0.06666666666666667 0.34 0.09999999999999998 0.03333333333333333 0.32 0.06666666666666667 0 0.33 0.06666666666666665 0.03333333333333333 0.33 0.06666666666666665 0 0.32 0.03333333333333333 0 0.36 0 0.2 0.37 0.03333333333333333 0.2 0.37 -1.850371707708594e-18 0.2 0.36 -1.850371707708594e-18 0.1666666666666667 0.36 0.06666666666666667 0.2 0.37 0.06666666666666665 0.2 0.36 0.06666666666666665 0.1666666666666667 0.36 0.03333333333333333 0.1666666666666667 0.34 0 0.1333333333333333 0.35 0.03333333333333333 0.1333333333333333 0.35 0 0.1333333333333333 0.34 -1.850371707708594e-18 0.09999999999999998 0.38 0.1666666666666667 0.2 0.37 0.1333333333333333 0.1666666666666667 0.34 0.06666666666666667 0.1333333333333333 0.35 0.06666666666666665 0.1333333333333333 0.34 0.06666666666666665 0.09999999999999998 0.34 0.03333333333333333 0.1 0.32 0 0.06666666666666667 0.33 0.03333333333333333 0.06666666666666665 0.33 0 0.06666666666666665 0.32 -1.850371707708594e-18 0.03333333333333333 0.36 0.2 0.03333333333333333 0.37 0.2 0.09999999999999998 0.35 0.1666666666666667 0.03333333333333333 0.34 0.1333333333333333 0.03333333333333333 0.37 0.1666666666666667 0.1666666666666667 0.36 0.2 0.1333333333333333 0.37 0.2 0.1333333333333333 0.36 0.1666666666666667 0.1333333333333333 0.36 0.1666666666666667 0.09999999999999999 0.35 0.1333333333333333 0.09999999999999999 0.33 0.09999999999999999 0.03333333333333333 0.32 0.06666666666666667 0.06666666666666667 0.33 0.06666666666666665 0.06666666666666665 0.32 0.06666666666666665 0.03333333333333333 0.32 0.03333333333333333 0.03333333333333333 0.36 0.03333333333333333 0.2 0.37 0.1 0.2 0.35 0.03333333333333333 0.1666666666666667 0.34 0.03333333333333333 0.1333333333333333 0.36 0.1333333333333333 0.2 0.37 0.1333333333333333 0.2 0.36 0.1333333333333333 0.1666666666666667 0.36 0.1 0.1666666666666667 0.35 0.09999999999999999 0.1333333333333333 0.33 0.03333333333333333 0.09999999999999999 0.32 0.03333333333333333 0.06666666666666667 0.35 0.1666666666666667 0 0.36 0.2 0.09999999999999999 0.35 0.1666666666666667 0.06666666666666665 0.33 0.09999999999999999 0 0.37 0.2 0.1666666666666667 0.35 0.1666666666666667 0.09999999999999999 0.34 0.1333333333333333 0.1333333333333333 0.35 0.1333333333333333 0.1333333333333333 0.34 0.1333333333333333 0.09999999999999998 0.34 0.1 0.1 0.33 0.09999999999999999 0.06666666666666665 0.3 0 0 0.31 0.03333333333333333 0.03333333333333333 0.3099999999999999 0.03333333333333333 0 0.3099999999999999 0 0 0.35 0 0.1666666666666667 0.36 0.1 0.2 0.35 0.06666666666666665 0.1666666666666667 0.33 0 0.09999999999999999 0.37 0.1666666666666667 0.2 0.35 0.1 0.1666666666666667 0.34 0.1 0.1333333333333333 0.33 0.06666666666666665 0.09999999999999999 0.3099999999999999 0 0.03333333333333333 0.34 0.2 0 0.35 0.2 0.03333333333333333 0.35 0.2 0 0.34 0.1666666666666667 0 0.34 0.2 0.06666666666666667 0.35 0.2 0.06666666666666667 0.34 0.1666666666666667 0.06666666666666667 0.34 0.1666666666666667 0.03333333333333333 0.32 0.1333333333333333 0 0.33 0.1333333333333333 0.03333333333333333 0.33 0.1333333333333333 0 0.32 0.1 0 0.36 0.2 0.2 0.37 0.2 0.2 0.36 0.2 0.1666666666666667 0.36 0.1666666666666667 0.1666666666666667 0.35 0.1666666666666667 0.1333333333333333 0.33 0.1 0.09999999999999999 0.32 0.1333333333333333 0.06666666666666667 0.33 0.1333333333333333 0.06666666666666665 0.32 0.1 0.06666666666666667 0.32 0.09999999999999998 0.03333333333333333 0.3 0.06666666666666667 0 0.3099999999999999 0.06666666666666665 0.03333333333333333 0.3099999999999999 0.06666666666666665 0 0.3 0.03333333333333333 0 0.34 0 0.2 0.35 0.03333333333333333 0.2 0.35 -1.850371707708594e-18 0.2 0.34 -1.850371707708594e-18 0.1666666666666667 0.34 0.06666666666666667 0.2 0.35 0.06666666666666665 0.2 0.34 0.06666666666666665 0.1666666666666667 0.34 0.03333333333333333 0.1666666666666667 0.32 0 0.1333333333333333 0.33 0.03333333333333333 0.1333333333333333 0.33 0 0.1333333333333333 0.32 -1.850371707708594e-18 0.09999999999999998 0.36 0.1666666666666667 0.2 0.35 0.1333333333333333 0.1666666666666667 0.32 0.06666666666666667 0.1333333333333333 0.33 0.06666666666666665 0.1333333333333333 0.32 0.06666666666666665 0.09999999999999998 0.32 0.03333333333333333 0.1 0.3 0 0.06666666666666667 0.3099999999999999 0.03333333333333333 0.06666666666666665 0.3099999999999999 0 0.06666666666666665 0.2999999999999999 -1.850371707708594e-18 0.03333333333333333 0.34 0.2 0.03333333333333333 0.35 0.2 0.09999999999999998 0.33 0.1666666666666667 0.03333333333333333 0.32 0.1333333333333333 0.03333333333333333 0.35 0.1666666666666667 0.1666666666666667 0.34 0.2 0.1333333333333333 0.35 0.2 0.1333333333333333 0.34 0.1666666666666667 0.1333333333333333 0.34 0.1666666666666667 0.09999999999999999 0.33 0.1333333333333333 0.09999999999999999 0.31 0.09999999999999999 0.03333333333333333 0.3 0.06666666666666667 0.06666666666666667 0.3099999999999999 0.06666666666666665 0.06666666666666665 0.2999999999999999 0.06666666666666665 0.03333333333333333 0.3 0.03333333333333333 0.03333333333333333 0.34 0.03333333333333333 0.2 0.35 0.1 0.2 0.33 0.03333333333333333 0.1666666666666667 0.32 0.03333333333333333 0.1333333333333333 0.34 0.1333333333333333 0.2 0.35 0.1333333333333333 0.2 0.34 0.1333333333333333 0.1666666666666667 0.34 0.1 0.1666666666666667 0.33 0.09999999999999999 0.1333333333333333 0.31 0.03333333333333333 0.09999999999999999 0.3 0.03333333333333333 0.06666666666666667 0.33 0.1666666666666667 0 0.34 0.2 0.09999999999999999 0.33 0.1666666666666667 0.06666666666666665 0.3099999999999999 0.09999999999999999 0 0.35 0.2 0.1666666666666667 0.33 0.1666666666666667 0.09999999999999999 0.32 0.1333333333333333 0.1333333333333333 0.33 0.1333333333333333 0.1333333333333333 0.32 0.1333333333333333 0.09999999999999998 0.32 0.1 0.1 0.3099999999999999 0.09999999999999999 0.06666666666666665 0.28 0 0 0.29 0.03333333333333333 0.03333333333333333 0.29 0.03333333333333333 0 0.29 0 0 0.33 0 0.1666666666666667 0.34 0.1 0.2 0.33 0.06666666666666665 0.1666666666666667 0.3099999999999999 0 0.09999999999999999 0.35 0.1666666666666667 0.2 0.33 0.1 0.1666666666666667 0.32 0.1 0.1333333333333333 0.3099999999999999 0.06666666666666665 0.09999999999999999 0.29 0 0.03333333333333333 0.32 0.2 0 0.33 0.2 0.03333333333333333 0.33 0.2 0 0.32 0.1666666666666667 0 0.32 0.2 0.06666666666666667 0.33 0.2 0.06666666666666667 0.32 0.1666666666666667 0.06666666666666667 0.32 0.1666666666666667 0.03333333333333333 0.3 0.1333333333333333 0 0.3099999999999999 0.1333333333333333 0.03333333333333333 0.3099999999999999 0.1333333333333333 0 0.3 0.1 0 0.34 0.2 0.2 0.35 0.2 0.2 0.34 0.2 0.1666666666666667 0.34 0.1666666666666667 0.1666666666666667 0.33 0.1666666666666667 0.1333333333333333 0.31 0.1 0.09999999999999999 0.3 0.1333333333333333 0.06666666666666667 0.3099999999999999 0.1333333333333333 0.06666666666666665 0.3 0.1 0.06666666666666667 0.2999999999999999 0.09999999999999998 0.03333333333333333 0.28 0.06666666666666667 0 0.29 0.06666666666666665 0.03333333333333333 0.29 0.06666666666666665 0 0.28 0.03333333333333333 0 0.32 0 0.2 0.3300000000000001 0.03333333333333333 0.2 0.33 -1.850371707708594e-18 0.2 0.32 -1.850371707708594e-18 0.1666666666666667 0.32 0.06666666666666667 0.2 0.33 0.06666666666666665 0.2 0.32 0.06666666666666665 0.1666666666666667 0.32 0.03333333333333333 0.1666666666666667 0.3 0 0.1333333333333333 0.3099999999999999 0.03333333333333333 0.1333333333333333 0.3099999999999999 0 0.1333333333333333 0.2999999999999999 -1.850371707708594e-18 0.09999999999999998 0.34 0.1666666666666667 0.2 0.33 0.1333333333333333 0.1666666666666667 0.3 0.06666666666666667 0.1333333333333333 0.3099999999999999 0.06666666666666665 0.1333333333333333 0.2999999999999999 0.06666666666666665 0.09999999999999998 0.3 0.03333333333333333 0.1 0.28 0 0.06666666666666667 0.29 0.03333333333333333 0.06666666666666665 0.29 0 0.06666666666666665 0.28 -1.850371707708594e-18 0.03333333333333333 0.32 0.2 0.03333333333333333 0.33 0.2 0.09999999999999998 0.31 0.1666666666666667 0.03333333333333333 0.2999999999999999 0.1333333333333333 0.03333333333333333 0.33 0.1666666666666667 0.1666666666666667 0.32 0.2 0.1333333333333333 0.33 0.2 0.1333333333333333 0.32 0.1666666666666667 0.1333333333333333 0.32 0.1666666666666667 0.09999999999999999 0.3099999999999999 0.1333333333333333 0.09999999999999999 0.29 0.09999999999999999 0.03333333333333333 0.28 0.06666666666666667 0.06666666666666667 0.29 0.06666666666666665 0.06666666666666665 0.28 0.06666666666666665 0.03333333333333333 0.28 0.03333333333333333 0.03333333333333333 0.32 0.03333333333333333 0.2 0.3300000000000001 0.1 0.2 0.31 0.03333333333333333 0.1666666666666667 0.3 0.03333333333333333 0.1333333333333333 0.32 0.1333333333333333 0.2 0.33 0.1333333333333333 0.2 0.32 0.1333333333333333 0.1666666666666667 0.32 0.1 0.1666666666666667 0.3099999999999999 0.09999999999999999 0.1333333333333333 0.29 0.03333333333333333 0.09999999999999999 0.28 0.03333333333333333 0.06666666666666667 0.3099999999999999 0.1666666666666667 0 0.32 0.2 0.09999999999999999 0.3099999999999999 0.1666666666666667 0.06666666666666665 0.29 0.09999999999999999 0 0.33 0.2 0.1666666666666667 0.31 0.1666666666666667 0.09999999999999999 0.3 0.1333333333333333 0.1333333333333333 0.3099999999999999 0.1333333333333333 0.1333333333333333 0.2999999999999999 0.1333333333333333 0.09999999999999998 0.3 0.1 0.1 0.29 0.09999999999999999 0.06666666666666665 0.26 0 0 0.27 0.03333333333333333 0.03333333333333333 0.27 0.03333333333333333 0 0.27 0 0 0.3099999999999999 0 0.1666666666666667 0.32 0.1 0.2 0.3099999999999999 0.06666666666666665 0.1666666666666667 0.29 0 0.09999999999999999 0.3300000000000001 0.1666666666666667 0.2 0.31 0.1 0.1666666666666667 0.3 0.1 0.1333333333333333 0.29 0.06666666666666665 0.09999999999999999 0.27 0 0.03333333333333333 0.3 0.2 0 0.3099999999999999 0.2 0.03333333333333333 0.31 0.2 0 0.3 0.1666666666666667 0 0.3 0.2 0.06666666666666667 0.31 0.2 0.06666666666666667 0.3 0.1666666666666667 0.06666666666666667 0.2999999999999999 0.1666666666666667 0.03333333333333333 0.28 0.1333333333333333 0 0.29 0.1333333333333333 0.03333333333333333 0.29 0.1333333333333333 0 0.28 0.1 0 0.32 0.2 0.2 0.33 0.2 0.2 0.32 0.2 0.1666666666666667 0.32 0.1666666666666667 0.1666666666666667 0.3099999999999999 0.1666666666666667 0.1333333333333333 0.29 0.1 0.09999999999999999 0.28 0.1333333333333333 0.06666666666666667 0.29 0.1333333333333333 0.06666666666666665 0.28 0.1 0.06666666666666667 0.28 0.09999999999999998 0.03333333333333333 0.26 0.06666666666666667 0 0.27 0.06666666666666665 0.03333333333333333 0.27 0.06666666666666665 0 0.26 0.03333333333333333 0 0.3 0 0.2 0.3100000000000001 0.03333333333333333 0.2 0.3099999999999999 -1.850371707708594e-18 0.2 0.2999999999999999 -1.850371707708594e-18 0.1666666666666667 0.3 0.06666666666666667 0.2 0.3099999999999999 0.06666666666666665 0.2 0.2999999999999999 0.06666666666666665 0.1666666666666667 0.3 0.03333333333333333 0.1666666666666667 0.28 0 0.1333333333333333 0.29 0.03333333333333333 0.1333333333333333 0.29 0 0.1333333333333333 0.28 -1.850371707708594e-18 0.09999999999999998 0.32 0.1666666666666667 0.2 0.3099999999999999 0.1333333333333333 0.1666666666666667 0.28 0.06666666666666667 0.1333333333333333 0.29 0.06666666666666665 0.1333333333333333 0.28 0.06666666666666665 0.09999999999999998 0.28 0.03333333333333333 0.1 0.26 0 0.06666666666666667 0.27 0.03333333333333333 0.06666666666666665 0.27 0 0.06666666666666665 0.26 -1.850371707708594e-18 0.03333333333333333 0.2999999999999999 0.2 0.03333333333333333 0.3099999999999999 0.2 0.09999999999999998 0.29 0.1666666666666667 0.03333333333333333 0.28 0.1333333333333333 0.03333333333333333 0.31 0.1666666666666667 0.1666666666666667 0.3 0.2 0.1333333333333333 0.31 0.2 0.1333333333333333 0.3 0.1666666666666667 0.1333333333333333 0.2999999999999999 0.1666666666666667 0.09999999999999999 0.29 0.1333333333333333 0.09999999999999999 0.27 0.09999999999999999 0.03333333333333333 0.26 0.06666666666666667 0.06666666666666667 0.27 0.06666666666666665 0.06666666666666665 0.26 0.06666666666666665 0.03333333333333333 0.26 0.03333333333333333 0.03333333333333333 0.3 0.03333333333333333 0.2 0.3100000000000001 0.1 0.2 0.29 0.03333333333333333 0.1666666666666667 0.28 0.03333333333333333 0.1333333333333333 0.3 0.1333333333333333 0.2 0.3099999999999999 0.1333333333333333 0.2 0.2999999999999999 0.1333333333333333 0.1666666666666667 0.3 0.1 0.1666666666666667 0.29 0.09999999999999999 0.1333333333333333 0.27 0.03333333333333333 0.09999999999999999 0.26 0.03333333333333333 0.06666666666666667 0.29 0.1666666666666667 0 0.2999999999999999 0.2 0.09999999999999999 0.29 0.1666666666666667 0.06666666666666665 0.27 0.09999999999999999 0 0.3099999999999999 0.2 0.1666666666666667 0.29 0.1666666666666667 0.09999999999999999 0.28 0.1333333333333333 0.1333333333333333 0.29 0.1333333333333333 0.1333333333333333 0.28 0.1333333333333333 0.09999999999999998 0.28 0.1 0.1 0.27 0.09999999999999999 0.06666666666666665 0.24 0 0 0.25 0.03333333333333333 0.03333333333333333 0.25 0.03333333333333333 0 0.25 0 0 0.29 0 0.1666666666666667 0.3 0.1 0.2 0.29 0.06666666666666665 0.1666666666666667 0.27 0 0.09999999999999999 0.3100000000000001 0.1666666666666667 0.2 0.29 0.1 0.1666666666666667 0.28 0.1 0.1333333333333333 0.27 0.06666666666666665 0.09999999999999999 0.25 0 0.03333333333333333 0.28 0.2 0 0.29 0.2 0.03333333333333333 0.29 0.2 0 0.28 0.1666666666666667 0 0.28 0.2 0.06666666666666667 0.29 0.2 0.06666666666666667 0.28 0.1666666666666667 0.06666666666666667 0.28 0.1666666666666667 0.03333333333333333 0.26 0.1333333333333333 0 0.27 0.1333333333333333 0.03333333333333333 0.27 0.1333333333333333 0 0.26 0.1 0 0.3 0.2 0.2 0.3099999999999999 0.2 0.2 0.2999999999999999 0.2 0.1666666666666667 0.3 0.1666666666666667 0.1666666666666667 0.29 0.1666666666666667 0.1333333333333333 0.27 0.1 0.09999999999999999 0.26 0.1333333333333333 0.06666666666666667 0.27 0.1333333333333333 0.06666666666666665 0.26 0.1 0.06666666666666667 0.26 0.09999999999999998 0.03333333333333333 0.24 0.06666666666666667 0 0.25 0.06666666666666665 0.03333333333333333 0.25 0.06666666666666665 0 0.24 0.03333333333333333 0 0.28 0 0.2 0.29 0.03333333333333333 0.2 0.29 -1.850371707708594e-18 0.2 0.28 -1.850371707708594e-18 0.1666666666666667 0.28 0.06666666666666667 0.2 0.29 0.06666666666666665 0.2 0.28 0.06666666666666665 0.1666666666666667 0.28 0.03333333333333333 0.1666666666666667 0.26 0 0.1333333333333333 0.27 0.03333333333333333 0.1333333333333333 0.27 0 0.1333333333333333 0.26 -1.850371707708594e-18 0.09999999999999998 0.3 0.1666666666666667 0.2 0.29 0.1333333333333333 0.1666666666666667 0.26 0.06666666666666667 0.1333333333333333 0.27 0.06666666666666665 0.1333333333333333 0.26 0.06666666666666665 0.09999999999999998 0.26 0.03333333333333333 0.1 0.24 0 0.06666666666666667 0.25 0.03333333333333333 0.06666666666666665 0.25 0 0.06666666666666665 0.24 -1.850371707708594e-18 0.03333333333333333 0.28 0.2 0.03333333333333333 0.29 0.2 0.09999999999999998 0.27 0.1666666666666667 0.03333333333333333 0.26 0.1333333333333333 0.03333333333333333 0.29 0.1666666666666667 0.1666666666666667 0.28 0.2 0.1333333333333333 0.29 0.2 0.1333333333333333 0.28 0.1666666666666667 0.1333333333333333 0.28 0.1666666666666667 0.09999999999999999 0.27 0.1333333333333333 0.09999999999999999 0.25 0.09999999999999999 0.03333333333333333 0.24 0.06666666666666667 0.06666666666666667 0.25 0.06666666666666665 0.06666666666666665 0.24 0.06666666666666665 0.03333333333333333 0.24 0.03333333333333333 0.03333333333333333 0.28 0.03333333333333333 0.2 0.29 0.1 0.2 0.27 0.03333333333333333 0.1666666666666667 0.26 0.03333333333333333 0.1333333333333333 0.28 0.1333333333333333 0.2 0.29 0.1333333333333333 0.2 0.28 0.1333333333333333 0.1666666666666667 0.28 0.1 0.1666666666666667 0.27 0.09999999999999999 0.1333333333333333 0.25 0.03333333333333333 0.09999999999999999 0.24 0.03333333333333333 0.06666666666666667 0.27 0.1666666666666667 0 0.28 0.2 0.09999999999999999 0.27 0.1666666666666667 0.06666666666666665 0.25 0.09999999999999999 0 0.29 0.2 0.1666666666666667 0.27 0.1666666666666667 0.09999999999999999 0.26 0.1333333333333333 0.1333333333333333 0.27 0.1333333333333333 0.1333333333333333 0.26 0.1333333333333333 0.09999999999999998 0.26 0.1 0.1 0.25 0.09999999999999999 0.06666666666666665 0.22 0 0 0.23 0.03333333333333333 0.03333333333333333 0.23 0.03333333333333333 0 0.23 0 0 0.27 0 0.1666666666666667 0.28 0.1 0.2 0.27 0.06666666666666665 0.1666666666666667 0.25 0 0.09999999999999999 0.29 0.1666666666666667 0.2 0.27 0.1 0.1666666666666667 0.26 0.1 0.1333333333333333 0.25 0.06666666666666665 0.09999999999999999 0.23 0 0.03333333333333333 0.26 0.2 0 0.27 0.2 0.03333333333333333 0.27 0.2 0 0.26 0.1666666666666667 0 0.26 0.2 0.06666666666666667 0.27 0.2 0.06666666666666667 0.26 0.1666666666666667 0.06666666666666667 0.26 0.1666666666666667 0.03333333333333333 0.24 0.1333333333333333 0 0.25 0.1333333333333333 0.03333333333333333 0.25 0.1333333333333333 0 0.24 0.1 0 0.28 0.2 0.2 0.29 0.2 0.2 0.28 0.2 0.1666666666666667 0.28 0.1666666666666667 0.1666666666666667 0.27 0.1666666666666667 0.1333333333333333 0.25 0.1 0.09999999999999999 0.24 0.1333333333333333 0.06666666666666667 0.25 0.1333333333333333 0.06666666666666665 0.24 0.1 0.06666666666666667 0.24 0.09999999999999998 0.03333333333333333 0.22 0.06666666666666667 0 0.23 0.06666666666666665 0.03333333333333333 0.23 0.06666666666666665 0 0.22 0.03333333333333333 0 0.26 0 0.2 0.27 0.03333333333333333 0.2 0.27 -1.850371707708594e-18 0.2 0.26 -1.850371707708594e-18 0.1666666666666667 0.26 0.06666666666666667 0.2 0.27 0.06666666666666665 0.2 0.26 0.06666666666666665 0.1666666666666667 0.26 0.03333333333333333 0.1666666666666667 0.24 0 0.1333333333333333 0.25 0.03333333333333333 0.1333333333333333 0.25 0 0.1333333333333333 0.24 -1.850371707708594e-18 0.09999999999999998 0.28 0.1666666666666667 0.2 0.27 0.1333333333333333 0.1666666666666667 0.24 0.06666666666666667 0.1333333333333333 0.25 0.06666666666666665 0.1333333333333333 0.24 0.06666666666666665 0.09999999999999998 0.24 0.03333333333333333 0.1 0.22 0 0.06666666666666667 0.23 0.03333333333333333 0.06666666666666665 0.23 0 0.06666666666666665 0.22 -1.850371707708594e-18 0.03333333333333333 0.26 0.2 0.03333333333333333 0.27 0.2 0.09999999999999998 0.25 0.1666666666666667 0.03333333333333333 0.24 0.1333333333333333 0.03333333333333333 0.27 0.1666666666666667 0.1666666666666667 0.26 0.2 0.1333333333333333 0.27 0.2 0.1333333333333333 0.26 0.1666666666666667 0.1333333333333333 0.26 0.1666666666666667 0.09999999999999999 0.25 0.1333333333333333 0.09999999999999999 0.23 0.09999999999999999 0.03333333333333333 0.22 0.06666666666666667 0.06666666666666667 0.23 0.06666666666666665 0.06666666666666665 0.22 0.06666666666666665 0.03333333333333333 0.22 0.03333333333333333 0.03333333333333333 0.26 0.03333333333333333 0.2 0.27 0.1 0.2 0.25 0.03333333333333333 0.1666666666666667 0.24 0.03333333333333333 0.1333333333333333 0.26 0.1333333333333333 0.2 0.27 0.1333333333333333 0.2 0.26 0.1333333333333333 0.1666666666666667 0.26 0.1 0.1666666666666667 0.25 0.09999999999999999 0.1333333333333333 0.23 0.03333333333333333 0.09999999999999999 0.22 0.03333333333333333 0.06666666666666667 0.25 0.1666666666666667 0 0.26 0.2 0.09999999999999999 0.25 0.1666666666666667 0.06666666666666665 0.23 0.09999999999999999 0 0.27 0.2 0.1666666666666667 0.25 0.1666666666666667 0.09999999999999999 0.24 0.1333333333333333 0.1333333333333333 0.25 0.1333333333333333 0.1333333333333333 0.24 0.1333333333333333 0.09999999999999998 0.24 0.1 0.1 0.23 0.09999999999999999 0.06666666666666665 0.2 0 0 0.21 0.03333333333333333 0.03333333333333333 0.21 0.03333333333333333 0 0.21 0 0 0.25 0 0.1666666666666667 0.26 0.1 0.2 0.25 0.06666666666666665 0.1666666666666667 0.23 0 0.09999999999999999 0.27 0.1666666666666667 0.2 0.25 0.1 0.1666666666666667 0.24 0.1 0.1333333333333333 0.23 0.06666666666666665 0.09999999999999999 0.21 0 0.03333333333333333 0.24 0.2 0 0.25 0.2 0.03333333333333333 0.25 0.2 0 0.24 0.1666666666666667 0 0.24 0.2 0.06666666666666667 0.25 0.2 0.06666666666666667 0.24 0.1666666666666667 0.06666666666666667 0.24 0.1666666666666667 0.03333333333333333 0.22 0.1333333333333333 0 0.23 0.1333333333333333 0.03333333333333333 0.23 0.1333333333333333 0 0.22 0.1 0 0.26 0.2 0.2 0.27 0.2 0.2 0.26 0.2 0.1666666666666667 0.26 0.1666666666666667 0.1666666666666667 0.25 0.1666666666666667 0.1333333333333333 0.23 0.1 0.09999999999999999 0.22 0.1333333333333333 0.06666666666666667 0.23 0.1333333333333333 0.06666666666666665 0.22 0.1 0.06666666666666667 0.22 0.09999999999999998 0.03333333333333333 0.2 0.06666666666666667 0 0.21 0.06666666666666665 0.03333333333333333 0.21 0.06666666666666665 0 0.2 0.03333333333333333 0 0.24 0 0.2 0.25 0.03333333333333333 0.2 0.25 -1.850371707708594e-18 0.2 0.24 -1.850371707708594e-18 0.1666666666666667 0.24 0.06666666666666667 0.2 0.25 0.06666666666666665 0.2 0.24 0.06666666666666665 0.1666666666666667 0.24 0.03333333333333333 0.1666666666666667 0.22 0 0.1333333333333333 0.23 0.03333333333333333 0.1333333333333333 0.23 0 0.1333333333333333 0.22 -1.850371707708594e-18 0.09999999999999998 0.26 0.1666666666666667 0.2 0.25 0.1333333333333333 0.1666666666666667 0.22 0.06666666666666667 0.1333333333333333 0.23 0.06666666666666665 0.1333333333333333 0.22 0.06666666666666665 0.09999999999999998 0.22 0.03333333333333333 0.1 0.2 0 0.06666666666666667 0.21 0.03333333333333333 0.06666666666666665 0.21 0 0.06666666666666665 0.2 -1.850371707708594e-18 0.03333333333333333 0.24 0.2 0.03333333333333333 0.25 0.2 0.09999999999999998 0.23 0.1666666666666667 0.03333333333333333 0.22 0.1333333333333333 0.03333333333333333 0.25 0.1666666666666667 0.1666666666666667 0.24 0.2 0.1333333333333333 0.25 0.2 0.1333333333333333 0.24 0.1666666666666667 0.1333333333333333 0.24 0.1666666666666667 0.09999999999999999 0.23 0.1333333333333333 0.09999999999999999 0.21 0.09999999999999999 0.03333333333333333 0.2 0.06666666666666667 0.06666666666666667 0.21 0.06666666666666665 0.06666666666666665 0.2 0.06666666666666665 0.03333333333333333 0.2 0.03333333333333333 0.03333333333333333 0.24 0.03333333333333333 0.2 0.25 0.1 0.2 0.23 0.03333333333333333 0.1666666666666667 0.22 0.03333333333333333 0.1333333333333333 0.24 0.1333333333333333 0.2 0.25 0.1333333333333333 0.2 0.24 0.1333333333333333 0.1666666666666667 0.24 0.1 0.1666666666666667 0.23 0.09999999999999999 0.1333333333333333 0.21 0.03333333333333333 0.09999999999999999 0.2 0.03333333333333333 0.06666666666666667 0.23 0.1666666666666667 0 0.24 0.2 0.09999999999999999 0.23 0.1666666666666667 0.06666666666666665 0.21 0.09999999999999999 0 0.25 0.2 0.1666666666666667 0.23 0.1666666666666667 0.09999999999999999 0.22 0.1333333333333333 0.1333333333333333 0.23 0.1333333333333333 0.1333333333333333 0.22 0.1333333333333333 0.09999999999999998 0.22 0.1 0.1 0.21 0.09999999999999999 0.06666666666666665 0.18 0 0 0.19 0.03333333333333333 0.03333333333333333 0.19 0.03333333333333333 0 0.19 0 0 0.23 0 0.1666666666666667 0.24 0.1 0.2 0.23 0.06666666666666665 0.1666666666666667 0.21 0 0.09999999999999999 0.25 0.1666666666666667 0.2 0.23 0.1 0.1666666666666667 0.22 0.1 0.1333333333333333 0.21 0.06666666666666665 0.09999999999999999 0.19 0 0.03333333333333333 0.22 0.2 0 0.23 0.2 0.03333333333333333 0.23 0.2 0 0.22 0.1666666666666667 0 0.22 0.2 0.06666666666666667 0.23 0.2 0.06666666666666667 0.22 0.1666666666666667 0.06666666666666667 0.22 0.1666666666666667 0.03333333333333333 0.2 0.1333333333333333 0 0.21 0.1333333333333333 0.03333333333333333 0.21 0.1333333333333333 0 0.2 0.1 0 0.24 0.2 0.2 0.25 0.2 0.2 0.24 0.2 0.1666666666666667 0.24 0.1666666666666667 0.1666666666666667 0.23 0.1666666666666667 0.1333333333333333 0.21 0.1 0.09999999999999999 0.2 0.1333333333333333 0.06666666666666667 0.21 0.1333333333333333 0.06666666666666665 0.2 0.1 0.06666666666666667 0.2 0.09999999999999998 0.03333333333333333 0.18 0.06666666666666667 0 0.19 0.06666666666666665 0.03333333333333333 0.19 0.06666666666666665 0 0.18 0.03333333333333333 0 0.22 0 0.2 0.23 0.03333333333333333 0.2 0.23 -1.850371707708594e-18 0.2 0.22 -1.850371707708594e-18 0.1666666666666667 0.22 0.06666666666666667 0.2 0.23 0.06666666666666665 0.2 0.22 0.06666666666666665 0.1666666666666667 0.22 0.03333333333333333 0.1666666666666667 0.2 0 0.1333333333333333 0.21 0.03333333333333333 0.1333333333333333 0.21 0 0.1333333333333333 0.2 -1.850371707708594e-18 0.09999999999999998 0.24 0.1666666666666667 0.2 0.23 0.1333333333333333 0.1666666666666667 0.2 0.06666666666666667 0.1333333333333333 0.21 0.06666666666666665 0.1333333333333333 0.2 0.06666666666666665 0.09999999999999998 0.2 0.03333333333333333 0.1 0.18 0 0.06666666666666667 0.19 0.03333333333333333 0.06666666666666665 0.19 0 0.06666666666666665 0.18 -1.850371707708594e-18 0.03333333333333333 0.22 0.2 0.03333333333333333 0.23 0.2 0.09999999999999998 0.21 0.1666666666666667 0.03333333333333333 0.2 0.1333333333333333 0.03333333333333333 0.23 0.1666666666666667 0.1666666666666667 0.22 0.2 0.1333333333333333 0.23 0.2 0.1333333333333333 0.22 0.1666666666666667 0.1333333333333333 0.22 0.1666666666666667 0.09999999999999999 0.21 0.1333333333333333 0.09999999999999999 0.19 0.09999999999999999 0.03333333333333333 0.18 0.06666666666666667 0.06666666666666667 0.19 0.06666666666666665 0.06666666666666665 0.18 0.06666666666666665 0.03333333333333333 0.18 0.03333333333333333 0.03333333333333333 0.22 0.03333333333333333 0.2 0.23 0.1 0.2 0.21 0.03333333333333333 0.1666666666666667 0.2 0.03333333333333333 0.1333333333333333 0.22 0.1333333333333333 0.2 0.23 0.1333333333333333 0.2 0.22 0.1333333333333333 0.1666666666666667 0.22 0.1 0.1666666666666667 0.21 0.09999999999999999 0.1333333333333333 0.19 0.03333333333333333 0.09999999999999999 0.18 0.03333333333333333 0.06666666666666667 0.21 0.1666666666666667 0 0.22 0.2 0.09999999999999999 0.21 0.1666666666666667 0.06666666666666665 0.19 0.09999999999999999 0 0.23 0.2 0.1666666666666667 0.21 0.1666666666666667 0.09999999999999999 0.2 0.1333333333333333 0.1333333333333333 0.21 0.1333333333333333 0.1333333333333333 0.2 0.1333333333333333 0.09999999999999998 0.2 0.1 0.1 0.19 0.09999999999999999 0.06666666666666665 0.16 0 0 0.17 0.03333333333333333 0.03333333333333333 0.17 0.03333333333333333 0 0.17 0 0 0.21 0 0.1666666666666667 0.22 0.1 0.2 0.21 0.06666666666666665 0.1666666666666667 0.19 0 0.09999999999999999 0.23 0.1666666666666667 0.2 0.21 0.1 0.1666666666666667 0.2 0.1 0.1333333333333333 0.19 0.06666666666666665 0.09999999999999999 0.17 0 0.03333333333333333 0.2 0.2 0 0.21 0.2 0.03333333333333333 0.21 0.2 0 0.2 0.1666666666666667 0 0.2 0.2 0.06666666666666667 0.21 0.2 0.06666666666666667 0.2 0.1666666666666667 0.06666666666666667 0.2 0.1666666666666667 0.03333333333333333 0.18 0.1333333333333333 0 0.19 0.1333333333333333 0.03333333333333333 0.19 0.1333333333333333 0 0.18 0.1 0 0.22 0.2 0.2 0.23 0.2 0.2 0.22 0.2 0.1666666666666667 0.22 0.1666666666666667 0.1666666666666667 0.21 0.1666666666666667 0.1333333333333333 0.19 0.1 0.09999999999999999 0.18 0.1333333333333333 0.06666666666666667 0.19 0.1333333333333333 0.06666666666666665 0.18 0.1 0.06666666666666667 0.18 0.09999999999999998 0.03333333333333333 0.16 0.06666666666666667 0 0.17 0.06666666666666665 0.03333333333333333 0.17 0.06666666666666665 0 0.16 0.03333333333333333 0 0.2 0 0.2 0.21 0.03333333333333333 0.2 0.21 -1.850371707708594e-18 0.2 0.2 -1.850371707708594e-18 0.1666666666666667 0.2 0.06666666666666667 0.2 0.21 0.06666666666666665 0.2 0.2 0.06666666666666665 0.1666666666666667 0.2 0.03333333333333333 0.1666666666666667 0.18 0 0.1333333333333333 0.19 0.03333333333333333 0.1333333333333333 0.19 0 0.1333333333333333 0.18 -1.850371707708594e-18 0.09999999999999998 0.22 0.1666666666666667 0.2 0.21 0.1333333333333333 0.1666666666666667 0.18 0.06666666666666667 0.1333333333333333 0.19 0.06666666666666665 0.1333333333333333 0.18 0.06666666666666665 0.09999999999999998 0.18 0.03333333333333333 0.1 0.16 0 0.06666666666666667 0.17 0.03333333333333333 0.06666666666666665 0.17 0 0.06666666666666665 0.16 -1.850371707708594e-18 0.03333333333333333 0.2 0.2 0.03333333333333333 0.21 0.2 0.09999999999999998 0.19 0.1666666666666667 0.03333333333333333 0.18 0.1333333333333333 0.03333333333333333 0.21 0.1666666666666667 0.1666666666666667 0.2 0.2 0.1333333333333333 0.21 0.2 0.1333333333333333 0.2 0.1666666666666667 0.1333333333333333 0.2 0.1666666666666667 0.09999999999999999 0.19 0.1333333333333333 0.09999999999999999 0.17 0.09999999999999999 0.03333333333333333 0.16 0.06666666666666667 0.06666666666666667 0.17 0.06666666666666665 0.06666666666666665 0.16 0.06666666666666665 0.03333333333333333 0.16 0.03333333333333333 0.03333333333333333 0.2 0.03333333333333333 0.2 0.21 0.1 0.2 0.19 0.03333333333333333 0.1666666666666667 0.18 0.03333333333333333 0.1333333333333333 0.2 0.1333333333333333 0.2 0.21 0.1333333333333333 0.2 0.2 0.1333333333333333 0.1666666666666667 0.2 0.1 0.1666666666666667 0.19 0.09999999999999999 0.1333333333333333 0.17 0.03333333333333333 0.09999999999999999 0.16 0.03333333333333333 0.06666666666666667 0.19 0.1666666666666667 0 0.2 0.2 0.09999999999999999 0.19 0.1666666666666667 0.06666666666666665 0.17 0.09999999999999999 0 0.21 0.2 0.1666666666666667 0.19 0.1666666666666667 0.09999999999999999 0.18 0.1333333333333333 0.1333333333333333 0.19 0.1333333333333333 0.1333333333333333 0.18 0.1333333333333333 0.09999999999999998 0.18 0.1 0.1 0.17 0.09999999999999999 0.06666666666666665 0.14 0 0 0.15 0.03333333333333333 0.03333333333333333 0.15 0.03333333333333333 0 0.15 0 0 0.19 0 0.1666666666666667 0.2 0.1 0.2 0.19 0.06666666666666665 0.1666666666666667 0.17 0 0.09999999999999999 0.21 0.1666666666666667 0.2 0.19 0.1 0.1666666666666667 0.18 0.1 0.1333333333333333 0.17 0.06666666666666665 0.09999999999999999 0.15 0 0.03333333333333333 0.18 0.2 0 0.19 0.2 0.03333333333333333 0.19 0.2 0 0.18 0.1666666666666667 0 0.18 0.2 0.06666666666666667 0.19 0.2 0.06666666666666667 0.18 0.1666666666666667 0.06666666666666667 0.18 0.1666666666666667 0.03333333333333333 0.16 0.1333333333333333 0 0.17 0.1333333333333333 0.03333333333333333 0.17 0.1333333333333333 0 0.16 0.1 0 0.2 0.2 0.2 0.21 0.2 0.2 0.2 0.2 0.1666666666666667 0.2 0.1666666666666667 0.1666666666666667 0.19 0.1666666666666667 0.1333333333333333 0.17 0.1 0.09999999999999999 0.16 0.1333333333333333 0.06666666666666667 0.17 0.1333333333333333 0.06666666666666665 0.16 0.1 0.06666666666666667 0.16 0.09999999999999998 0.03333333333333333 0.14 0.06666666666666667 0 0.15 0.06666666666666665 0.03333333333333333 0.15 0.06666666666666665 0 0.14 0.03333333333333333 0 0.18 0 0.2 0.19 0.03333333333333333 0.2 0.19 -1.850371707708594e-18 0.2 0.18 -1.850371707708594e-18 0.1666666666666667 0.18 0.06666666666666667 0.2 0.19 0.06666666666666665 0.2 0.18 0.06666666666666665 0.1666666666666667 0.18 0.03333333333333333 0.1666666666666667 0.16 0 0.1333333333333333 0.17 0.03333333333333333 0.1333333333333333 0.17 0 0.1333333333333333 0.16 -1.850371707708594e-18 0.09999999999999998 0.2 0.1666666666666667 0.2 0.19 0.1333333333333333 0.1666666666666667 0.16 0.06666666666666667 0.1333333333333333 0.17 0.06666666666666665 0.1333333333333333 0.16 0.06666666666666665 0.09999999999999998 0.16 0.03333333333333333 0.1 0.14 0 0.06666666666666667 0.15 0.03333333333333333 0.06666666666666665 0.15 0 0.06666666666666665 0.14 -1.850371707708594e-18 0.03333333333333333 0.18 0.2 0.03333333333333333 0.19 0.2 0.09999999999999998 0.17 0.1666666666666667 0.03333333333333333 0.16 0.1333333333333333 0.03333333333333333 0.19 0.1666666666666667 0.1666666666666667 0.18 0.2 0.1333333333333333 0.19 0.2 0.1333333333333333 0.18 0.1666666666666667 0.1333333333333333 0.18 0.1666666666666667 0.09999999999999999 0.17 0.1333333333333333 0.09999999999999999 0.15 0.09999999999999999 0.03333333333333333 0.14 0.06666666666666667 0.06666666666666667 0.15 0.06666666666666665 0.06666666666666665 0.14 0.06666666666666665 0.03333333333333333 0.14 0.03333333333333333 0.03333333333333333 0.18 0.03333333333333333 0.2 0.19 0.1 0.2 0.17 0.03333333333333333 0.1666666666666667 0.16 0.03333333333333333 0.1333333333333333 0.18 0.1333333333333333 0.2 0.19 0.1333333333333333 0.2 0.18 0.1333333333333333 0.1666666666666667 0.18 0.1 0.1666666666666667 0.17 0.09999999999999999 0.1333333333333333 0.15 0.03333333333333333 0.09999999999999999 0.14 0.03333333333333333 0.06666666666666667 0.17 0.1666666666666667 0 0.18 0.2 0.09999999999999999 0.17 0.1666666666666667 0.06666666666666665 0.15 0.09999999999999999 0 0.19 0.2 0.1666666666666667 0.17 0.1666666666666667 0.09999999999999999 0.16 0.1333333333333333 0.1333333333333333 0.17 0.1333333333333333 0.1333333333333333 0.16 0.1333333333333333 0.09999999999999998 0.16 0.1 0.1 0.15 0.09999999999999999 0.06666666666666665 0.12 0 0 0.13 0.03333333333333333 0.03333333333333333 0.13 0.03333333333333333 0 0.13 0 0 0.17 0 0.1666666666666667 0.18 0.1 0.2 0.17 0.06666666666666665 0.1666666666666667 0.15 0 0.09999999999999999 0.19 0.1666666666666667 0.2 0.17 0.1 0.1666666666666667 0.16 0.1 0.1333333333333333 0.15 0.06666666666666665 0.09999999999999999 0.13 0 0.03333333333333333 0.16 0.2 0 0.17 0.2 0.03333333333333333 0.17 0.2 0 0.16 0.1666666666666667 0 0.16 0.2 0.06666666666666667 0.17 0.2 0.06666666666666667 0.16 0.1666666666666667 0.06666666666666667 0.16 0.1666666666666667 0.03333333333333333 0.14 0.1333333333333333 0 0.15 0.1333333333333333 0.03333333333333333 0.15 0.1333333333333333 0 0.14 0.1 0 0.18 0.2 0.2 0.19 0.2 0.2 0.18 0.2 0.1666666666666667 0.18 0.1666666666666667 0.1666666666666667 0.17 0.1666666666666667 0.1333333333333333 0.15 0.1 0.09999999999999999 0.14 0.1333333333333333 0.06666666666666667 0.15 0.1333333333333333 0.06666666666666665 0.14 0.1 0.06666666666666667 0.14 0.09999999999999998 0.03333333333333333 0.12 0.06666666666666667 0 0.13 0.06666666666666665 0.03333333333333333 0.13 0.06666666666666665 0 0.12 0.03333333333333333 0 0.16 0 0.2 0.17 0.03333333333333333 0.2 0.17 -1.850371707708594e-18 0.2 0.16 -1.850371707708594e-18 0.1666666666666667 0.16 0.06666666666666667 0.2 0.17 0.06666666666666665 0.2 0.16 0.06666666666666665 0.1666666666666667 0.16 0.03333333333333333 0.1666666666666667 0.14 0 0.1333333333333333 0.15 0.03333333333333333 0.1333333333333333 0.15 0 0.1333333333333333 0.14 -1.850371707708594e-18 0.09999999999999998 0.18 0.1666666666666667 0.2 0.17 0.1333333333333333 0.1666666666666667 0.14 0.06666666666666667 0.1333333333333333 0.15 0.06666666666666665 0.1333333333333333 0.14 0.06666666666666665 0.09999999999999998 0.14 0.03333333333333333 0.1 0.12 0 0.06666666666666667 0.13 0.03333333333333333 0.06666666666666665 0.13 0 0.06666666666666665 0.12 -1.850371707708594e-18 0.03333333333333333 0.16 0.2 0.03333333333333333 0.17 0.2 0.09999999999999998 0.15 0.1666666666666667 0.03333333333333333 0.14 0.1333333333333333 0.03333333333333333 0.17 0.1666666666666667 0.1666666666666667 0.16 0.2 0.1333333333333333 0.17 0.2 0.1333333333333333 0.16 0.1666666666666667 0.1333333333333333 0.16 0.1666666666666667 0.09999999999999999 0.15 0.1333333333333333 0.09999999999999999 0.13 0.09999999999999999 0.03333333333333333 0.12 0.06666666666666667 0.06666666666666667 0.13 0.06666666666666665 0.06666666666666665 0.12 0.06666666666666665 0.03333333333333333 0.12 0.03333333333333333 0.03333333333333333 0.16 0.03333333333333333 0.2 0.17 0.1 0.2 0.15 0.03333333333333333 0.1666666666666667 0.14 0.03333333333333333 0.1333333333333333 0.16 0.1333333333333333 0.2 0.17 0.1333333333333333 0.2 0.16 0.1333333333333333 0.1666666666666667 0.16 0.1 0.1666666666666667 0.15 0.09999999999999999 0.1333333333333333 0.13 0.03333333333333333 0.09999999999999999 0.12 0.03333333333333333 0.06666666666666667 0.15 0.1666666666666667 0 0.16 0.2 0.09999999999999999 0.15 0.1666666666666667 0.06666666666666665 0.13 0.09999999999999999 0 0.17 0.2 0.1666666666666667 0.15 0.1666666666666667 0.09999999999999999 0.14 0.1333333333333333 0.1333333333333333 0.15 0.1333333333333333 0.1333333333333333 0.14 0.1333333333333333 0.09999999999999998 0.14 0.1 0.1 0.13 0.09999999999999999 0.06666666666666665 0.1 0 0 0.11 0.03333333333333333 0.03333333333333333 0.11 0.03333333333333333 0 0.11 0 0 0.15 0 0.1666666666666667 0.16 0.1 0.2 0.15 0.06666666666666665 0.1666666666666667 0.13 0 0.09999999999999999 0.17 0.1666666666666667 0.2 0.15 0.1 0.1666666666666667 0.14 0.1 0.1333333333333333 0.13 0.06666666666666665 0.09999999999999999 0.11 0 0.03333333333333333 0.14 0.2 0 0.15 0.2 0.03333333333333333 0.15 0.2 0 0.14 0.1666666666666667 0 0.14 0.2 0.06666666666666667 0.15 0.2 0.06666666666666667 0.14 0.1666666666666667 0.06666666666666667 0.14 0.1666666666666667 0.03333333333333333 0.12 0.1333333333333333 0 0.13 0.1333333333333333 0.03333333333333333 0.13 0.1333333333333333 0 0.12 0.1 0 0.16 0.2 0.2 0.17 0.2 0.2 0.16 0.2 0.1666666666666667 0.16 0.1666666666666667 0.1666666666666667 0.15 0.1666666666666667 0.1333333333333333 0.13 0.1 0.09999999999999999 0.12 0.1333333333333333 0.06666666666666667 0.13 0.1333333333333333 0.06666666666666665 0.12 0.1 0.06666666666666667 0.12 0.09999999999999998 0.03333333333333333 0.1 0.06666666666666667 0 0.11 0.06666666666666665 0.03333333333333333 0.11 0.06666666666666665 0 0.1 0.03333333333333333 0 0.14 0 0.2 0.15 0.03333333333333333 0.2 0.15 -1.850371707708594e-18 0.2 0.14 -1.850371707708594e-18 0.1666666666666667 0.14 0.06666666666666667 0.2 0.15 0.06666666666666665 0.2 0.14 0.06666666666666665 0.1666666666666667 0.14 0.03333333333333333 0.1666666666666667 0.12 0 0.1333333333333333 0.13 0.03333333333333333 0.1333333333333333 0.13 0 0.1333333333333333 0.12 -1.850371707708594e-18 0.09999999999999998 0.16 0.1666666666666667 0.2 0.15 0.1333333333333333 0.1666666666666667 0.12 0.06666666666666667 0.1333333333333333 0.13 0.06666666666666665 0.1333333333333333 0.12 0.06666666666666665 0.09999999999999998 0.12 0.03333333333333333 0.1 0.1 0 0.06666666666666667 0.11 0.03333333333333333 0.06666666666666665 0.11 0 0.06666666666666665 0.1 -1.850371707708594e-18 0.03333333333333333 0.14 0.2 0.03333333333333333 0.15 0.2 0.09999999999999998 0.13 0.1666666666666667 0.03333333333333333 0.12 0.1333333333333333 0.03333333333333333 0.15 0.1666666666666667 0.1666666666666667 0.14 0.2 0.1333333333333333 0.15 0.2 0.1333333333333333 0.14 0.1666666666666667 0.1333333333333333 0.14 0.1666666666666667 0.09999999999999999 0.13 0.1333333333333333 0.09999999999999999 0.11 0.09999999999999999 0.03333333333333333 0.1 0.06666666666666667 0.06666666666666667 0.11 0.06666666666666665 0.06666666666666665 0.1 0.06666666666666665 0.03333333333333333 0.1 0.03333333333333333 0.03333333333333333 0.14 0.03333333333333333 0.2 0.15 0.1 0.2 0.13 0.03333333333333333 0.1666666666666667 0.12 0.03333333333333333 0.1333333333333333 0.14 0.1333333333333333 0.2 0.15 0.1333333333333333 0.2 0.14 0.1333333333333333 0.1666666666666667 0.14 0.1 0.1666666666666667 0.13 0.09999999999999999 0.1333333333333333 0.11 0.03333333333333333 0.09999999999999999 0.1 0.03333333333333333 0.06666666666666667 0.13 0.1666666666666667 0 0.14 0.2 0.09999999999999999 0.13 0.1666666666666667 0.06666666666666665 0.11 0.09999999999999999 0 0.15 0.2 0.1666666666666667 0.13 0.1666666666666667 0.09999999999999999 0.12 0.1333333333333333 0.1333333333333333 0.13 0.1333333333333333 0.1333333333333333 0.12 0.1333333333333333 0.09999999999999998 0.12 0.1 0.1 0.11 0.09999999999999999 0.06666666666666665 0.08 0 0 0.09 0.03333333333333333 0.03333333333333333 0.09 0.03333333333333333 0 0.09 0 0 0.13 0 0.1666666666666667 0.14 0.1 0.2 0.13 0.06666666666666665 0.1666666666666667 0.11 0 0.09999999999999999 0.15 0.1666666666666667 0.2 0.13 0.1 0.1666666666666667 0.12 0.1 0.1333333333333333 0.11 0.06666666666666665 0.09999999999999999 0.09 0 0.03333333333333333 0.12 0.2 0 0.13 0.2 0.03333333333333333 0.13 0.2 0 0.12 0.1666666666666667 0 0.12 0.2 0.06666666666666667 0.13 0.2 0.06666666666666667 0.12 0.1666666666666667 0.06666666666666667 0.12 0.1666666666666667 0.03333333333333333 0.1 0.1333333333333333 0 0.11 0.1333333333333333 0.03333333333333333 0.11 0.1333333333333333 0 0.1 0.1 0 0.14 0.2 0.2 0.15 0.2 0.2 0.14 0.2 0.1666666666666667 0.14 0.1666666666666667 0.1666666666666667 0.13 0.1666666666666667 0.1333333333333333 0.11 0.1 0.09999999999999999 0.1 0.1333333333333333 0.06666666666666667 0.11 0.1333333333333333 0.06666666666666665 0.1 0.1 0.06666666666666667 0.1 0.09999999999999998 0.03333333333333333 0.08 0.06666666666666667 0 0.09 0.06666666666666665 0.03333333333333333 0.09 0.06666666666666665 0 0.08 0.03333333333333333 0 0.12 0 0.2 0.13 0.03333333333333333 0.2 0.13 -1.850371707708594e-18 0.2 0.12 -1.850371707708594e-18 0.1666666666666667 0.12 0.06666666666666667 0.2 0.13 0.06666666666666665 0.2 0.12 0.06666666666666665 0.1666666666666667 0.12 0.03333333333333333 0.1666666666666667 0.1 0 0.1333333333333333 0.11 0.03333333333333333 0.1333333333333333 0.11 0 0.1333333333333333 0.1 -1.850371707708594e-18 0.09999999999999998 0.14 0.1666666666666667 0.2 0.13 0.1333333333333333 0.1666666666666667 0.1 0.06666666666666667 0.1333333333333333 0.11 0.06666666666666665 0.1333333333333333 0.1 0.06666666666666665 0.09999999999999998 0.1 0.03333333333333333 0.1 0.08 0 0.06666666666666667 0.09 0.03333333333333333 0.06666666666666665 0.09 0 0.06666666666666665 0.07999999999999999 -1.850371707708594e-18 0.03333333333333333 0.12 0.2 0.03333333333333333 0.13 0.2 0.09999999999999998 0.11 0.1666666666666667 0.03333333333333333 0.1 0.1333333333333333 0.03333333333333333 0.13 0.1666666666666667 0.1666666666666667 0.12 0.2 0.1333333333333333 0.13 0.2 0.1333333333333333 0.12 0.1666666666666667 0.1333333333333333 0.12 0.1666666666666667 0.09999999999999999 0.11 0.1333333333333333 0.09999999999999999 0.09 0.09999999999999999 0.03333333333333333 0.08 0.06666666666666667 0.06666666666666667 0.09 0.06666666666666665 0.06666666666666665 0.07999999999999999 0.06666666666666665 0.03333333333333333 0.08 0.03333333333333333 0.03333333333333333 0.12 0.03333333333333333 0.2 0.13 0.1 0.2 0.11 0.03333333333333333 0.1666666666666667 0.1 0.03333333333333333 0.1333333333333333 0.12 0.1333333333333333 0.2 0.13 0.1333333333333333 0.2 0.12 0.1333333333333333 0.1666666666666667 0.12 0.1 0.1666666666666667 0.11 0.09999999999999999 0.1333333333333333 0.09 0.03333333333333333 0.09999999999999999 0.08 0.03333333333333333 0.06666666666666667 0.11 0.1666666666666667 0 0.12 0.2 0.09999999999999999 0.11 0.1666666666666667 0.06666666666666665 0.09 0.09999999999999999 0 0.13 0.2 0.1666666666666667 0.11 0.1666666666666667 0.09999999999999999 0.1 0.1333333333333333 0.1333333333333333 0.11 0.1333333333333333 0.1333333333333333 0.1 0.1333333333333333 0.09999999999999998 0.1 0.1 0.1 0.09 0.09999999999999999 0.06666666666666665 0.06 0 0 0.07000000000000001 0.03333333333333333 0.03333333333333333 0.06999999999999999 0.03333333333333333 0 0.06999999999999999 0 0 0.11 0 0.1666666666666667 0.12 0.1 0.2 0.11 0.06666666666666665 0.1666666666666667 0.09 0 0.09999999999999999 0.13 0.1666666666666667 0.2 0.11 0.1 0.1666666666666667 0.1 0.1 0.1333333333333333 0.09 0.06666666666666665 0.09999999999999999 0.06999999999999999 0 0.03333333333333333 0.1 0.2 0 0.11 0.2 0.03333333333333333 0.11 0.2 0 0.1 0.1666666666666667 0 0.1 0.2 0.06666666666666667 0.11 0.2 0.06666666666666667 0.1 0.1666666666666667 0.06666666666666667 0.1 0.1666666666666667 0.03333333333333333 0.08 0.1333333333333333 0 0.09 0.1333333333333333 0.03333333333333333 0.09 0.1333333333333333 0 0.08 0.1 0 0.12 0.2 0.2 0.13 0.2 0.2 0.12 0.2 0.1666666666666667 0.12 0.1666666666666667 0.1666666666666667 0.11 0.1666666666666667 0.1333333333333333 0.09 0.1 0.09999999999999999 0.08 0.1333333333333333 0.06666666666666667 0.09 0.1333333333333333 0.06666666666666665 0.08 0.1 0.06666666666666667 0.07999999999999999 0.09999999999999998 0.03333333333333333 0.06 0.06666666666666667 0 0.06999999999999999 0.06666666666666665 0.03333333333333333 0.06999999999999999 0.06666666666666665 0 0.06 0.03333333333333333 0 0.1 0 0.2 0.11 0.03333333333333333 0.2 0.11 -1.850371707708594e-18 0.2 0.1 -1.850371707708594e-18 0.1666666666666667 0.1 0.06666666666666667 0.2 0.11 0.06666666666666665 0.2 0.1 0.06666666666666665 0.1666666666666667 0.1 0.03333333333333333 0.1666666666666667 0.08 0 0.1333333333333333 0.09 0.03333333333333333 0.1333333333333333 0.09 0 0.1333333333333333 0.07999999999999999 -1.850371707708594e-18 0.09999999999999998 0.12 0.1666666666666667 0.2 0.11 0.1333333333333333 0.1666666666666667 0.08 0.06666666666666667 0.1333333333333333 0.09 0.06666666666666665 0.1333333333333333 0.07999999999999999 0.06666666666666665 0.09999999999999998 0.08 0.03333333333333333 0.1 0.06 0 0.06666666666666667 0.06999999999999999 0.03333333333333333 0.06666666666666665 0.06999999999999999 0 0.06666666666666665 0.06 -1.850371707708594e-18 0.03333333333333333 0.1 0.2 0.03333333333333333 0.11 0.2 0.09999999999999998 0.09 0.1666666666666667 0.03333333333333333 0.07999999999999999 0.1333333333333333 0.03333333333333333 0.11 0.1666666666666667 0.1666666666666667 0.1 0.2 0.1333333333333333 0.11 0.2 0.1333333333333333 0.1 0.1666666666666667 0.1333333333333333 0.1 0.1666666666666667 0.09999999999999999 0.09 0.1333333333333333 0.09999999999999999 0.07000000000000001 0.09999999999999999 0.03333333333333333 0.06 0.06666666666666667 0.06666666666666667 0.06999999999999999 0.06666666666666665 0.06666666666666665 0.06 0.06666666666666665 0.03333333333333333 0.06 0.03333333333333333 0.03333333333333333 0.1 0.03333333333333333 0.2 0.11 0.1 0.2 0.09 0.03333333333333333 0.1666666666666667 0.08 0.03333333333333333 0.1333333333333333 0.1 0.1333333333333333 0.2 0.11 0.1333333333333333 0.2 0.1 0.1333333333333333 0.1666666666666667 0.1 0.1 0.1666666666666667 0.09 0.09999999999999999 0.1333333333333333 0.07000000000000001 0.03333333333333333 0.09999999999999999 0.06 0.03333333333333333 0.06666666666666667 0.09 0.1666666666666667 0 0.1 0.2 0.09999999999999999 0.09 0.1666666666666667 0.06666666666666665 0.06999999999999999 0.09999999999999999 0 0.11 0.2 0.1666666666666667 0.09 0.1666666666666667 0.09999999999999999 0.08 0.1333333333333333 0.1333333333333333 0.09 0.1333333333333333 0.1333333333333333 0.07999999999999999 0.1333333333333333 0.09999999999999998 0.08 0.1 0.1 0.06999999999999999 0.09999999999999999 0.06666666666666665 0.04 0 0 0.05 0.03333333333333333 0.03333333333333333 0.05 0.03333333333333333 0 0.05 0 0 0.09 0 0.1666666666666667 0.1 0.1 0.2 0.09 0.06666666666666665 0.1666666666666667 0.06999999999999999 0 0.09999999999999999 0.11 0.1666666666666667 0.2 0.09 0.1 0.1666666666666667 0.08 0.1 0.1333333333333333 0.06999999999999999 0.06666666666666665 0.09999999999999999 0.05 0 0.03333333333333333 0.08 0.2 0 0.09 0.2 0.03333333333333333 0.09 0.2 0 0.08 0.1666666666666667 0 0.08 0.2 0.06666666666666667 0.09 0.2 0.06666666666666667 0.08 0.1666666666666667 0.06666666666666667 0.07999999999999999 0.1666666666666667 0.03333333333333333 0.06 0.1333333333333333 0 0.06999999999999999 0.1333333333333333 0.03333333333333333 0.06999999999999999 0.1333333333333333 0 0.06 0.1 0 0.1 0.2 0.2 0.11 0.2 0.2 0.1 0.2 0.1666666666666667 0.1 0.1666666666666667 0.1666666666666667 0.09 0.1666666666666667 0.1333333333333333 0.07000000000000001 0.1 0.09999999999999999 0.06 0.1333333333333333 0.06666666666666667 0.06999999999999999 0.1333333333333333 0.06666666666666665 0.06 0.1 0.06666666666666667 0.06 0.09999999999999998 0.03333333333333333 0.04 0.06666666666666667 0 0.05 0.06666666666666665 0.03333333333333333 0.05 0.06666666666666665 0 0.04 0.03333333333333333 0 0.08 0 0.2 0.09000000000000001 0.03333333333333333 0.2 0.09 -1.850371707708594e-18 0.2 0.07999999999999999 -1.850371707708594e-18 0.1666666666666667 0.08 0.06666666666666667 0.2 0.09 0.06666666666666665 0.2 0.07999999999999999 0.06666666666666665 0.1666666666666667 0.08 0.03333333333333333 0.1666666666666667 0.06 0 0.1333333333333333 0.06999999999999999 0.03333333333333333 0.1333333333333333 0.06999999999999999 0 0.1333333333333333 0.06 -1.850371707708594e-18 0.09999999999999998 0.1 0.1666666666666667 0.2 0.09 0.1333333333333333 0.1666666666666667 0.06 0.06666666666666667 0.1333333333333333 0.06999999999999999 0.06666666666666665 0.1333333333333333 0.06 0.06666666666666665 0.09999999999999998 0.06 0.03333333333333333 0.1 0.04 0 0.06666666666666667 0.05 0.03333333333333333 0.06666666666666665 0.05 0 0.06666666666666665 0.03999999999999999 -1.850371707708594e-18 0.03333333333333333 0.07999999999999999 0.2 0.03333333333333333 0.09 0.2 0.09999999999999998 0.07000000000000001 0.1666666666666667 0.03333333333333333 0.06 0.1333333333333333 0.03333333333333333 0.09 0.1666666666666667 0.1666666666666667 0.08 0.2 0.1333333333333333 0.09 0.2 0.1333333333333333 0.08 0.1666666666666667 0.1333333333333333 0.07999999999999999 0.1666666666666667 0.09999999999999999 0.06999999999999999 0.1333333333333333 0.09999999999999999 0.05 0.09999999999999999 0.03333333333333333 0.04 0.06666666666666667 0.06666666666666667 0.05 0.06666666666666665 0.06666666666666665 0.03999999999999999 0.06666666666666665 0.03333333333333333 0.04 0.03333333333333333 0.03333333333333333 0.08 0.03333333333333333 0.2 0.09000000000000001 0.1 0.2 0.07000000000000001 0.03333333333333333 0.1666666666666667 0.06 0.03333333333333333 0.1333333333333333 0.08 0.1333333333333333 0.2 0.09 0.1333333333333333 0.2 0.07999999999999999 0.1333333333333333 0.1666666666666667 0.08 0.1 0.1666666666666667 0.06999999999999999 0.09999999999999999 0.1333333333333333 0.05 0.03333333333333333 0.09999999999999999 0.04 0.03333333333333333 0.06666666666666667 0.06999999999999999 0.1666666666666667 0 0.07999999999999999 0.2 0.09999999999999999 0.06999999999999999 0.1666666666666667 0.06666666666666665 0.05 0.09999999999999999 0 0.09 0.2 0.1666666666666667 0.07000000000000001 0.1666666666666667 0.09999999999999999 0.06 0.1333333333333333 0.1333333333333333 0.06999999999999999 0.1333333333333333 0.1333333333333333 0.06 0.1333333333333333 0.09999999999999998 0.06 0.1 0.1 0.05 0.09999999999999999 0.06666666666666665 0.02 0 0 0.03 0.03333333333333333 0.03333333333333333 0.03 0.03333333333333333 0 0.03 0 0 0.06999999999999999 0 0.1666666666666667 0.08 0.1 0.2 0.06999999999999999 0.06666666666666665 0.1666666666666667 0.05 0 0.09999999999999999 0.09000000000000001 0.1666666666666667 0.2 0.07000000000000001 0.1 0.1666666666666667 0.06 0.1 0.1333333333333333 0.05 0.06666666666666665 0.09999999999999999 0.03 0 0.03333333333333333 0.06 0.2 0 0.06999999999999999 0.2 0.03333333333333333 0.07000000000000001 0.2 0 0.06 0.1666666666666667 0 0.06 0.2 0.06666666666666667 0.07000000000000001 0.2 0.06666666666666667 0.06 0.1666666666666667 0.06666666666666667 0.06 0.1666666666666667 0.03333333333333333 0.04 0.1333333333333333 0 0.05 0.1333333333333333 0.03333333333333333 0.05 0.1333333333333333 0 0.04 0.1 0 0.08 0.2 0.2 0.09 0.2 0.2 0.07999999999999999 0.2 0.1666666666666667 0.08 0.1666666666666667 0.1666666666666667 0.06999999999999999 0.1666666666666667 0.1333333333333333 0.05 0.1 0.09999999999999999 0.04 0.1333333333333333 0.06666666666666667 0.05 0.1333333333333333 0.06666666666666665 0.04 0.1 0.06666666666666667 0.03999999999999999 0.09999999999999998 0.03333333333333333 0.02 0.06666666666666667 0 0.03 0.06666666666666665 0.03333333333333333 0.03 0.06666666666666665 0 0.02 0.03333333333333333 0 0.06 0 0.2 0.07000000000000001 0.03333333333333333 0.2 0.06999999999999999 -1.850371707708594e-18 0.2 0.06 -1.850371707708594e-18 0.1666666666666667 0.06 0.06666666666666667 0.2 0.06999999999999999 0.06666666666666665 0.2 0.06 0.06666666666666665 0.1666666666666667 0.06 0.03333333333333333 0.1666666666666667 0.04 0 0.1333333333333333 0.05 0.03333333333333333 0.1333333333333333 0.05 0 0.1333333333333333 0.03999999999999999 -1.850371707708594e-18 0.09999999999999998 0.08 0.1666666666666667 0.2 0.06999999999999999 0.1333333333333333 0.1666666666666667 0.04 0.06666666666666667 0.1333333333333333 0.05 0.06666666666666665 0.1333333333333333 0.03999999999999999 0.06666666666666665 0.09999999999999998 0.04 0.03333333333333333 0.1 0.02 0 0.06666666666666667 0.03 0.03333333333333333 0.06666666666666665 0.03 0 0.06666666666666665 0.02 -1.850371707708594e-18 0.03333333333333333 0.06 0.2 0.03333333333333333 0.06999999999999999 0.2 0.09999999999999998 0.05 0.1666666666666667 0.03333333333333333 0.03999999999999999 0.1333333333333333 0.03333333333333333 0.07000000000000001 0.1666666666666667 0.1666666666666667 0.06 0.2 0.1333333333333333 0.07000000000000001 0.2 0.1333333333333333 0.06 0.1666666666666667 0.1333333333333333 0.06 0.1666666666666667 0.09999999999999999 0.05 0.1333333333333333 0.09999999999999999 0.03 0.09999999999999999 0.03333333333333333 0.02 0.06666666666666667 0.06666666666666667 0.03 0.06666666666666665 0.06666666666666665 0.02 0.06666666666666665 0.03333333333333333 0.02 0.03333333333333333 0.03333333333333333 0.06 0.03333333333333333 0.2 0.07000000000000001 0.1 0.2 0.05 0.03333333333333333 0.1666666666666667 0.04 0.03333333333333333 0.1333333333333333 0.06 0.1333333333333333 0.2 0.06999999999999999 0.1333333333333333 0.2 0.06 0.1333333333333333 0.1666666666666667 0.06 0.1 0.1666666666666667 0.05 0.09999999999999999 0.1333333333333333 0.03 0.03333333333333333 0.09999999999999999 0.02 0.03333333333333333 0.06666666666666667 0.05 0.1666666666666667 0 0.06 0.2 0.09999999999999999 0.05 0.1666666666666667 0.06666666666666665 0.03 0.09999999999999999 0 0.06999999999999999 0.2 0.1666666666666667 0.05 0.1666666666666667 0.09999999999999999 0.04 0.1333333333333333 0.1333333333333333 0.05 0.1333333333333333 0.1333333333333333 0.03999999999999999 0.1333333333333333 0.09999999999999998 0.04 0.1 0.1 0.03 0.09999999999999999 0.06666666666666665 0 3.700743415417188e-18 3.700743415417188e-18 0.01 0.03333333333333333 0.03333333333333333 0.01 0.03333333333333333 0 0.01 0 0 0.05 0 0.1666666666666667 0.06 0.1 0.2 0.05 0.06666666666666665 0.1666666666666667 0.03 0 0.09999999999999999 0.07000000000000001 0.1666666666666667 0.2 0.05 0.1 0.1666666666666667 0.04 0.1 0.1333333333333333 0.03 0.06666666666666665 0.09999999999999999 0.01 0 0.03333333333333333 0.04 0.2 0 0.05 0.2 0.03333333333333333 0.05 0.2 0 0.04 0.1666666666666667 0 0.04 0.2 0.06666666666666667 0.05 0.2 0.06666666666666667 0.04 0.1666666666666667 0.06666666666666667 0.03999999999999999 0.1666666666666667 0.03333333333333333 0.02 0.1333333333333333 0 0.03 0.1333333333333333 0.03333333333333333 0.03 0.1333333333333333 0 0.02 0.1 0 0.06 0.2 0.2 0.06999999999999999 0.2 0.2 0.06 0.2 0.1666666666666667 0.06 0.1666666666666667 0.1666666666666667 0.05 0.1666666666666667 0.1333333333333333 0.03 0.1 0.09999999999999999 0.02 0.1333333333333333 0.06666666666666667 0.03 0.1333333333333333 0.06666666666666665 0.02 0.1 0.06666666666666667 0.02 0.09999999999999998 0.03333333333333333 0 0.06666666666666667 0 0.01 0.06666666666666665 0.03333333333333333 0.01 0.06666666666666665 0 0 0.03333333333333333 0 0.04 0 0.2 0.05 0.03333333333333333 0.2 0.05 -1.850371707708594e-18 0.2 0.03999999999999999 -1.850371707708594e-18 0.1666666666666667 0.04 0.06666666666666667 0.2 0.05 0.06666666666666665 0.2 0.03999999999999999 0.06666666666666665 0.1666666666666667 0.04 0.03333333333333333 0.1666666666666667 0.02 0 0.1333333333333333 0.03 0.03333333333333333 0.1333333333333333 0.03 0 0.1333333333333333 0.02 -1.850371707708594e-18 0.09999999999999998 0.06 0.1666666666666667 0.2 0.05 0.1333333333333333 0.1666666666666667 0.02 0.06666666666666667 0.1333333333333333 0.03 0.06666666666666665 0.1333333333333333 0.02 0.06666666666666665 0.09999999999999998 0.02 0.03333333333333333 0.1 0 3.700743415417188e-18 0.06666666666666667 0.01 0.03333333333333333 0.06666666666666665 0.01 0 0.06666666666666665 0 5.551115123125783e-18 0.03333333333333334 0.03999999999999999 0.2 0.03333333333333333 0.05 0.2 0.09999999999999998 0.03 0.1666666666666667 0.03333333333333333 0.02 0.1333333333333333 0.03333333333333333 0.05 0.1666666666666667 0.1666666666666667 0.04 0.2 0.1333333333333333 0.05 0.2 0.1333333333333333 0.04 0.1666666666666667 0.1333333333333333 0.03999999999999999 0.1666666666666667 0.09999999999999999 0.03 0.1333333333333333 0.09999999999999999 0.01 0.09999999999999999 0.03333333333333333 0 0.06666666666666667 0.06666666666666667 0.01 0.06666666666666665 0.06666666666666665 0 0.06666666666666668 0.03333333333333334 0 0.03333333333333333 0.03333333333333333 0.04 0.03333333333333333 0.2 0.05 0.1 0.2 0.03 0.03333333333333333 0.1666666666666667 0.02 0.03333333333333333 0.1333333333333333 0.04 0.1333333333333333 0.2 0.05 0.1333333333333333 0.2 0.03999999999999999 0.1333333333333333 0.1666666666666667 0.04 0.1 0.1666666666666667 0.03 0.09999999999999999 0.1333333333333333 0.01 0.03333333333333333 0.09999999999999999 0 0.03333333333333333 0.06666666666666665 0.03 0.1666666666666667 0 0.03999999999999999 0.2 0.09999999999999999 0.03 0.1666666666666667 0.06666666666666665 0.01 0.09999999999999999 0 0.05 0.2 0.1666666666666667 0.03 0.1666666666666667 0.09999999999999999 0.02 0.1333333333333333 0.1333333333333333 0.03 0.1333333333333333 0.1333333333333333 0.02 0.1333333333333333 0.09999999999999998 0.02 0.1 0.1 0.01 0.09999999999999999 0.06666666666666665 0.03 0 0.1666666666666667 0.04 0.1 0.2 0.03 0.06666666666666665 0.1666666666666667 0.01 0 0.09999999999999999 0.05 0.1666666666666667 0.2 0.03 0.1 0.1666666666666667 0.02 0.1 0.1333333333333333 0.01 0.06666666666666665 0.09999999999999999 0.02 0.2 0 0.03 0.2 0.03333333333333333 0.03 0.2 0 0.02 0.1666666666666667 0 0.02 0.2 0.06666666666666667 0.03 0.2 0.06666666666666667 0.02 0.1666666666666667 0.06666666666666667 0.02 0.1666666666666667 0.03333333333333333 0 0.1333333333333333 0 0.01 0.1333333333333333 0.03333333333333333 0.01 0.1333333333333333 0 0 0.09999999999999999 0 0.04 0.2 0.2 0.05 0.2 0.2 0.03999999999999999 0.2 0.1666666666666667 0.04 0.1666666666666667 0.1666666666666667 0.03 0.1666666666666667 0.1333333333333333 0.01 0.1 0.09999999999999999 0 0.1333333333333333 0.06666666666666665 0.01 0.1333333333333333 0.06666666666666665 0 0.09999999999999999 0.06666666666666665 0 0.1 0.03333333333333333 0.02 0 0.2 0.03 0.03333333333333333 0.2 0.03 -1.850371707708594e-18 0.2 0.02 -1.850371707708594e-18 0.1666666666666667 0.02 0.06666666666666667 0.2 0.03 0.06666666666666665 0.2 0.02 0.06666666666666665 0.1666666666666667 0.02 0.03333333333333333 0.1666666666666667 0 3.700743415417188e-18 0.1333333333333333 0.01 0.03333333333333333 0.1333333333333333 0.01 0 0.1333333333333333 0 5.551115123125783e-18 0.1 0.04 0.1666666666666667 0.2 0.03 0.1333333333333333 0.1666666666666667 0 0.06666666666666667 0.1333333333333333 0.01 0.06666666666666665 0.1333333333333333 0 0.06666666666666668 0.1 0 0.03333333333333333 0.09999999999999999 0.02 0.2 0.03333333333333333 0.03 0.2 0.09999999999999998 0.01 0.1666666666666667 0.03333333333333333 0 0.1333333333333334 0.03333333333333334 0.03 0.1666666666666667 0.1666666666666667 0.02 0.2 0.1333333333333333 0.03 0.2 0.1333333333333333 0.02 0.1666666666666667 0.1333333333333333 0.02 0.1666666666666667 0.09999999999999999 0.01 0.1333333333333333 0.09999999999999999 0.02 0.03333333333333333 0.2 0.03 0.1 0.2 0.01 0.03333333333333333 0.1666666666666667 0 0.03333333333333333 0.1333333333333333 0.02 0.1333333333333333 0.2 0.03 0.1333333333333333 0.2 0.02 0.1333333333333333 0.1666666666666667 0.02 0.1 0.1666666666666667 0.01 0.09999999999999999 0.1333333333333333 0.01 0.1666666666666667 0 0.02 0.2 0.09999999999999999 0.01 0.1666666666666667 0.06666666666666665 0.03 0.2 0.1666666666666667 0.01 0.1666666666666667 0.09999999999999999 0 0.1333333333333333 0.1333333333333333 0.01 0.1333333333333333 0.1333333333333333 0 0.1333333333333334 0.1 0 0.09999999999999999 0.09999999999999999 0.01 0 0.1666666666666667 0.02 0.1 0.2 0.01 0.06666666666666665 0.1666666666666667 0.03 0.1666666666666667 0.2 0.01 0.1 0.1666666666666667 0 0.09999999999999999 0.1333333333333333 0 0.2 0 0.01 0.2 0.03333333333333333 0.01 0.2 0 0 0.1666666666666667 0 0 0.2 0.06666666666666667 0.01 0.2 0.06666666666666667 0 0.1666666666666667 0.06666666666666665 0 0.1666666666666667 0.03333333333333333 0.02 0.2 0.2 0.03 0.2 0.2 0.02 0.2 0.1666666666666667 0.02 0.1666666666666667 0.1666666666666667 0.01 0.1666666666666667 0.1333333333333333 0 7.401486830834377e-18 0.2 0.01 0.03333333333333333 0.2 0.009999999999999998 -1.850371707708594e-18 0.2 0 5.551115123125783e-18 0.1666666666666667 0 0.06666666666666668 0.2 0.009999999999999998 0.06666666666666665 0.2 0 0.06666666666666668 0.1666666666666667 0 0.03333333333333333 0.1666666666666667 0.02 0.1666666666666667 0.2 0.01 0.1333333333333333 0.1666666666666667 0 0.2 0.03333333333333333 0.01 0.2 0.09999999999999998 0.01 0.1666666666666667 0.1666666666666667 0 0.2 0.1333333333333333 0.01 0.2 0.1333333333333333 0 0.1666666666666667 0.1333333333333333 0 0.1666666666666667 0.1 0 0.03333333333333333 0.2 0.01 0.1 0.2 0 0.1333333333333334 0.2 0.009999999999999998 0.1333333333333333 0.2 0 0.1333333333333334 0.1666666666666667 0 0.09999999999999999 0.1666666666666667 0 0.2 0.1 0.01 0.2 0.1666666666666667 0 0.1 0.2 0.01 0.1666666666666667 0.2 0 0.2 0.2 0.01 0.2 0.2 0 0.2 0.1666666666666667 0 0.1666666666666667 0.1666666666666667 0 0.1666666666666667 0.2 </DataArray>
      </Points>
      <Cells>
        <DataArray type="Int32" Name="connectivity" format="ascii">0 1 2 3 9 6 8 7 5 4 0 1 3 10 9 5 7 13 12 11 0 2 14 3 8 16 17 7 4 15 0 10 3 18 13 11 7 21 20 19 14 2 22 3 16 24 25 15 4 23 0 14 26 3 17 28 29 7 15 27 18 10 3 30 20 11 19 33 32 31 0 26 18 3 29 34 21 7 27 19 14 2 35 22 16 37 38 25 24 36 14 3 22 26 15 23 25 28 27 39 40 0 14 26 43 17 42 41 29 28 18 10 30 44 20 32 33 47 46 45 18 3 26 30 19 27 34 33 31 48 40 0 26 18 43 29 41 49 21 34 14 35 50 22 38 52 53 25 36 51 26 3 22 54 27 23 39 57 56 55 14 58 26 22 61 60 28 25 59 39 40 14 62 26 42 64 65 41 28 63 18 44 30 66 47 45 33 69 68 67 26 3 54 30 27 56 57 48 31 70 18 26 71 30 34 73 74 33 48 72 40 18 26 75 49 34 41 78 77 76 50 35 79 22 52 81 82 51 36 80 14 50 58 22 53 83 61 25 51 59 26 22 58 54 39 59 60 57 55 84 62 14 58 26 64 61 85 63 28 60 40 62 86 26 65 88 89 41 63 87 66 44 30 90 68 45 67 93 92 91 18 71 66 30 74 94 69 33 72 67 26 30 54 71 48 70 57 73 72 95 75 18 26 71 77 34 76 96 74 73 40 86 75 26 89 97 78 41 87 76 50 35 98 79 52 100 101 82 81 99 50 22 79 58 51 80 82 83 59 102 62 14 50 58 64 53 103 85 61 83 58 22 104 54 59 106 107 84 55 105 26 58 108 54 60 110 111 57 84 109 62 26 58 86 63 60 85 88 87 112 113 40 62 86 116 65 115 114 89 88 66 44 90 117 68 92 93 120 119 118 66 30 71 90 67 72 94 93 91 121 75 18 71 66 77 74 96 122 69 94 71 30 54 123 72 70 95 126 125 124 26 108 71 54 111 127 73 57 109 95 75 26 86 71 76 87 97 96 73 128 113 40 86 75 116 89 114 129 78 97 50 98 130 79 101 132 133 82 99 131 58 22 79 104 59 80 102 107 106 134 50 135 58 79 138 137 83 82 136 102 62 50 139 58 103 141 142 85 83 140 58 54 104 108 84 105 107 110 109 143 86 26 58 108 87 60 112 144 111 110 62 145 86 58 148 147 88 85 146 112 113 62 149 86 115 151 152 114 88 150 66 117 90 153 120 118 93 156 155 154 71 30 123 90 72 125 126 121 91 157 66 71 158 90 94 160 161 93 121 159 75 66 71 162 122 94 96 165 164 163 71 54 108 123 95 109 127 126 124 166 86 26 108 71 87 111 144 128 73 127 75 86 167 71 97 169 170 96 128 168 113 75 86 171 129 97 114 174 173 172 50 130 135 79 133 175 138 82 131 136 58 79 135 104 102 136 137 107 134 176 139 50 135 58 141 138 177 140 83 137 62 139 145 58 142 178 148 85 140 146 108 54 104 179 109 105 143 182 181 180 58 183 108 104 186 185 110 107 184 143 86 58 145 108 112 146 147 144 110 187 149 62 145 86 151 148 188 150 88 147 113 149 189 86 152 191 192 114 150 190 66 158 153 90 161 193 156 93 159 154 71 90 123 158 121 157 126 160 159 194 162 66 71 158 164 94 163 195 161 160 75 167 162 71 170 196 165 96 168 163 108 54 179 123 109 181 182 166 124 197 71 108 198 123 127 200 201 126 166 199 86 71 108 167 128 127 144 169 168 202 171 75 86 167 173 97 172 203 170 169 113 189 171 86 192 204 174 114 190 172 139 50 130 135 141 133 205 177 138 175 58 135 183 104 137 206 186 107 176 184 139 58 135 145 140 137 177 178 146 207 149 62 139 145 151 142 208 188 148 178 108 104 183 179 143 184 185 182 180 209 145 58 183 108 146 186 210 187 110 185 86 145 211 108 147 213 214 144 187 212 149 86 145 189 150 147 188 191 190 215 216 113 149 189 219 152 218 217 192 191 162 66 158 153 164 161 195 220 156 193 71 198 158 123 201 221 160 126 199 194 162 71 167 158 163 168 196 195 160 222 171 75 167 162 173 170 203 223 165 196 108 123 179 198 166 197 182 200 199 224 167 71 108 198 168 127 202 225 201 200 86 211 167 108 214 226 169 144 212 202 171 86 189 167 172 190 204 203 169 227 216 113 189 171 219 192 217 228 174 204 139 130 229 135 205 231 232 177 175 230 145 58 135 183 146 137 207 210 186 206 139 233 145 135 236 235 178 177 234 207 149 139 237 145 208 239 240 188 178 238 108 183 241 179 185 243 244 182 209 242 145 108 183 211 187 185 210 213 212 245 189 86 145 211 190 147 215 246 214 213 149 247 189 145 250 249 191 188 248 215 216 149 251 189 218 253 254 217 191 252 162 153 158 255 220 193 195 258 257 256 167 71 198 158 168 201 225 222 160 221 162 167 259 158 196 261 262 195 222 260 171 162 167 263 223 196 203 266 265 264 108 241 198 179 244 267 200 182 242 224 167 108 211 198 202 212 226 225 200 268 189 86 211 167 190 214 246 227 169 226 171 189 269 167 204 271 272 203 227 270 216 171 189 273 228 204 217 276 275 274 139 229 233 135 232 277 236 177 230 234 145 135 233 183 207 234 235 210 206 278 237 139 233 145 239 236 279 238 178 235 149 237 247 145 240 280 250 188 238 248 211 108 183 241 212 185 245 281 244 243 145 282 211 183 285 284 213 210 283 245 189 145 247 211 215 248 249 246 213 286 251 149 247 189 253 250 287 252 191 249 216 251 288 189 254 290 291 217 252 289 162 259 255 158 262 292 258 195 260 256 167 158 198 259 222 221 225 261 260 293 263 162 167 259 265 196 264 294 262 261 171 269 263 167 272 295 266 203 270 264 211 108 241 198 212 244 281 268 200 267 167 211 296 198 226 298 299 225 268 297 189 167 211 269 227 226 246 271 270 300 273 171 189 269 275 204 274 301 272 271 216 288 273 189 291 302 276 217 289 274 237 139 229 233 239 232 303 279 236 277 145 233 282 183 235 304 285 210 278 283 237 145 233 247 238 235 279 280 248 305 251 149 237 247 253 240 306 287 250 280 211 183 282 241 245 283 284 281 243 307 247 145 282 211 248 285 308 286 213 284 189 247 309 211 249 311 312 246 286 310 251 189 247 288 252 249 287 290 289 313 314 216 251 288 317 254 316 315 291 290 263 162 259 255 265 262 294 318 258 292 167 296 259 198 299 319 261 225 297 293 263 167 269 259 264 270 295 294 261 320 273 171 269 263 275 272 301 321 266 295 211 198 241 296 268 267 281 298 297 322 269 167 211 296 270 226 300 323 299 298 189 309 269 211 312 324 271 246 310 300 273 189 288 269 274 289 302 301 271 325 314 216 288 273 317 291 315 326 276 302 237 229 327 233 303 329 330 279 277 328 247 145 233 282 248 235 305 308 285 304 237 331 247 233 334 333 280 279 332 305 251 237 335 247 306 337 338 287 280 336 211 282 339 241 284 341 342 281 307 340 247 211 282 309 286 284 308 311 310 343 288 189 247 309 289 249 313 344 312 311 251 345 288 247 348 347 290 287 346 313 314 251 349 288 316 351 352 315 290 350 263 255 259 353 318 292 294 356 355 354 269 167 296 259 270 299 323 320 261 319 263 269 357 259 295 359 360 294 320 358 273 263 269 361 321 295 301 364 363 362 211 339 296 241 342 365 298 281 340 322 269 211 309 296 300 310 324 323 298 366 288 189 309 269 289 312 344 325 271 324 273 288 367 269 302 369 370 301 325 368 314 273 288 371 326 302 315 374 373 372 237 327 331 233 330 375 334 279 328 332 247 233 331 282 305 332 333 308 304 376 335 237 331 247 337 334 377 336 280 333 251 335 345 247 338 378 348 287 336 346 309 211 282 339 310 284 343 379 342 341 247 380 309 282 383 382 311 308 381 343 288 247 345 309 313 346 347 344 311 384 349 251 345 288 351 348 385 350 290 347 314 349 386 288 352 388 389 315 350 387 263 357 353 259 360 390 356 294 358 354 269 259 296 357 320 319 323 359 358 391 361 263 269 357 363 295 362 392 360 359 273 367 361 269 370 393 364 301 368 362 309 211 339 296 310 342 379 366 298 365 269 309 394 296 324 396 397 323 366 395 288 269 309 367 325 324 344 369 368 398 371 273 288 367 373 302 372 399 370 369 314 386 371 288 389 400 374 315 387 372 335 237 327 331 337 330 401 377 334 375 247 331 380 282 333 402 383 308 376 381 335 247 331 345 336 333 377 378 346 403 349 251 335 345 351 338 404 385 348 378 309 282 380 339 343 381 382 379 341 405 345 247 380 309 346 383 406 384 311 382 288 345 407 309 347 409 410 344 384 408 349 288 345 386 350 347 385 388 387 411 412 314 349 386 415 352 414 413 389 388 361 263 357 353 363 360 392 416 356 390 269 394 357 296 397 417 359 323 395 391 361 269 367 357 362 368 393 392 359 418 371 273 367 361 373 370 399 419 364 393 309 296 339 394 366 365 379 396 395 420 367 269 309 394 368 324 398 421 397 396 288 407 367 309 410 422 369 344 408 398 371 288 386 367 372 387 400 399 369 423 412 314 386 371 415 389 413 424 374 400 335 327 425 331 401 427 428 377 375 426 345 247 331 380 346 333 403 406 383 402 335 429 345 331 432 431 378 377 430 403 349 335 433 345 404 435 436 385 378 434 309 380 437 339 382 439 440 379 405 438 345 309 380 407 384 382 406 409 408 441 386 288 345 407 387 347 411 442 410 409 349 443 386 345 446 445 388 385 444 411 412 349 447 386 414 449 450 413 388 448 361 353 357 451 416 390 392 454 453 452 367 269 394 357 368 397 421 418 359 417 361 367 455 357 393 457 458 392 418 456 371 361 367 459 419 393 399 462 461 460 309 437 394 339 440 463 396 379 438 420 367 309 407 394 398 408 422 421 396 464 386 288 407 367 387 410 442 423 369 422 371 386 465 367 400 467 468 399 423 466 412 371 386 469 424 400 413 472 471 470 335 425 429 331 428 473 432 377 426 430 345 331 429 380 403 430 431 406 402 474 433 335 429 345 435 432 475 434 378 431 349 433 443 345 436 476 446 385 434 444 407 309 380 437 408 382 441 477 440 439 345 478 407 380 481 480 409 406 479 441 386 345 443 407 411 444 445 442 409 482 447 349 443 386 449 446 483 448 388 445 412 447 484 386 450 486 487 413 448 485 361 455 451 357 458 488 454 392 456 452 367 357 394 455 418 417 421 457 456 489 459 361 367 455 461 393 460 490 458 457 371 465 459 367 468 491 462 399 466 460 407 309 437 394 408 440 477 464 396 463 367 407 492 394 422 494 495 421 464 493 386 367 407 465 423 422 442 467 466 496 469 371 386 465 471 400 470 497 468 467 412 484 469 386 487 498 472 413 485 470 433 335 425 429 435 428 499 475 432 473 345 429 478 380 431 500 481 406 474 479 433 345 429 443 434 431 475 476 444 501 447 349 433 443 449 436 502 483 446 476 407 380 478 437 441 479 480 477 439 503 443 345 478 407 444 481 504 482 409 480 386 443 505 407 445 507 508 442 482 506 447 386 443 484 448 445 483 486 485 509 510 412 447 484 513 450 512 511 487 486 459 361 455 451 461 458 490 514 454 488 367 492 455 394 495 515 457 421 493 489 459 367 465 455 460 466 491 490 457 516 469 371 465 459 471 468 497 517 462 491 407 394 437 492 464 463 477 494 493 518 465 367 407 492 466 422 496 519 495 494 386 505 465 407 508 520 467 442 506 496 469 386 484 465 470 485 498 497 467 521 510 412 484 469 513 487 511 522 472 498 433 425 523 429 499 525 526 475 473 524 443 345 429 478 444 431 501 504 481 500 433 527 443 429 530 529 476 475 528 501 447 433 531 443 502 533 534 483 476 532 407 478 535 437 480 537 538 477 503 536 443 407 478 505 482 480 504 507 506 539 484 386 443 505 485 445 509 540 508 507 447 541 484 443 544 543 486 483 542 509 510 447 545 484 512 547 548 511 486 546 459 451 455 549 514 488 490 552 551 550 465 367 492 455 466 495 519 516 457 515 459 465 553 455 491 555 556 490 516 554 469 459 465 557 517 491 497 560 559 558 407 535 492 437 538 561 494 477 536 518 465 407 505 492 496 506 520 519 494 562 484 386 505 465 485 508 540 521 467 520 469 484 563 465 498 565 566 497 521 564 510 469 484 567 522 498 511 570 569 568 433 523 527 429 526 571 530 475 524 528 443 429 527 478 501 528 529 504 500 572 531 433 527 443 533 530 573 532 476 529 447 531 541 443 534 574 544 483 532 542 505 407 478 535 506 480 539 575 538 537 443 576 505 478 579 578 507 504 577 539 484 443 541 505 509 542 543 540 507 580 545 447 541 484 547 544 581 546 486 543 510 545 582 484 548 584 585 511 546 583 459 553 549 455 556 586 552 490 554 550 465 455 492 553 516 515 519 555 554 587 557 459 465 553 559 491 558 588 556 555 469 563 557 465 566 589 560 497 564 558 505 407 535 492 506 538 575 562 494 561 465 505 590 492 520 592 593 519 562 591 484 465 505 563 521 520 540 565 564 594 567 469 484 563 569 498 568 595 566 565 510 582 567 484 585 596 570 511 583 568 531 433 523 527 533 526 597 573 530 571 443 527 576 478 529 598 579 504 572 577 531 443 527 541 532 529 573 574 542 599 545 447 531 541 547 534 600 581 544 574 505 478 576 535 539 577 578 575 537 601 541 443 576 505 542 579 602 580 507 578 484 541 603 505 543 605 606 540 580 604 545 484 541 582 546 543 581 584 583 607 608 510 545 582 611 548 610 609 585 584 557 459 553 549 559 556 588 612 552 586 465 590 553 492 593 613 555 519 591 587 557 465 563 553 558 564 589 588 555 614 567 469 563 557 569 566 595 615 560 589 505 492 535 590 562 561 575 592 591 616 563 465 505 590 564 520 594 617 593 592 484 603 563 505 606 618 565 540 604 594 567 484 582 563 568 583 596 595 565 619 608 510 582 567 611 585 609 620 570 596 531 523 621 527 597 623 624 573 571 622 541 443 527 576 542 529 599 602 579 598 531 625 541 527 628 627 574 573 626 599 545 531 629 541 600 631 632 581 574 630 505 576 633 535 578 635 636 575 601 634 541 505 576 603 580 578 602 605 604 637 582 484 541 603 583 543 607 638 606 605 545 639 582 541 642 641 584 581 640 607 608 545 643 582 610 645 646 609 584 644 557 549 553 647 612 586 588 650 649 648 563 465 590 553 564 593 617 614 555 613 557 563 651 553 589 653 654 588 614 652 567 557 563 655 615 589 595 658 657 656 505 633 590 535 636 659 592 575 634 616 563 505 603 590 594 604 618 617 592 660 582 484 603 563 583 606 638 619 565 618 567 582 661 563 596 663 664 595 619 662 608 567 582 665 620 596 609 668 667 666 531 621 625 527 624 669 628 573 622 626 541 527 625 576 599 626 627 602 598 670 629 531 625 541 631 628 671 630 574 627 545 629 639 541 632 672 642 581 630 640 603 505 576 633 604 578 637 673 636 635 541 674 603 576 677 676 605 602 675 637 582 541 639 603 607 640 641 638 605 678 643 545 639 582 645 642 679 644 584 641 608 643 680 582 646 682 683 609 644 681 557 651 647 553 654 684 650 588 652 648 563 553 590 651 614 613 617 653 652 685 655 557 563 651 657 589 656 686 654 653 567 661 655 563 664 687 658 595 662 656 603 505 633 590 604 636 673 660 592 659 563 603 688 590 618 690 691 617 660 689 582 563 603 661 619 618 638 663 662 692 665 567 582 661 667 596 666 693 664 663 608 680 665 582 683 694 668 609 681 666 629 531 621 625 631 624 695 671 628 669 541 625 674 576 627 696 677 602 670 675 629 541 625 639 630 627 671 672 640 697 643 545 629 639 645 632 698 679 642 672 603 576 674 633 637 675 676 673 635 699 639 541 674 603 640 677 700 678 605 676 582 639 701 603 641 703 704 638 678 702 643 582 639 680 644 641 679 682 681 705 706 608 643 680 709 646 708 707 683 682 655 557 651 647 657 654 686 710 650 684 563 688 651 590 691 711 653 617 689 685 655 563 661 651 656 662 687 686 653 712 665 567 661 655 667 664 693 713 658 687 603 590 633 688 660 659 673 690 689 714 661 563 603 688 662 618 692 715 691 690 582 701 661 603 704 716 663 638 702 692 665 582 680 661 666 681 694 693 663 717 706 608 680 665 709 683 707 718 668 694 629 621 719 625 695 721 722 671 669 720 639 541 625 674 640 627 697 700 677 696 629 723 639 625 726 725 672 671 724 697 643 629 727 639 698 729 730 679 672 728 603 674 731 633 676 733 734 673 699 732 639 603 674 701 678 676 700 703 702 735 680 582 639 701 681 641 705 736 704 703 643 737 680 639 740 739 682 679 738 705 706 643 741 680 708 743 744 707 682 742 655 647 651 745 710 684 686 748 747 746 661 563 688 651 662 691 715 712 653 711 655 661 749 651 687 751 752 686 712 750 665 655 661 753 713 687 693 756 755 754 603 731 688 633 734 757 690 673 732 714 661 603 701 688 692 702 716 715 690 758 680 582 701 661 681 704 736 717 663 716 665 680 759 661 694 761 762 693 717 760 706 665 680 763 718 694 707 766 765 764 629 719 723 625 722 767 726 671 720 724 639 625 723 674 697 724 725 700 696 768 727 629 723 639 729 726 769 728 672 725 643 727 737 639 730 770 740 679 728 738 701 603 674 731 702 676 735 771 734 733 639 772 701 674 775 774 703 700 773 735 680 639 737 701 705 738 739 736 703 776 741 643 737 680 743 740 777 742 682 739 706 741 778 680 744 780 781 707 742 779 655 749 745 651 752 782 748 686 750 746 661 651 688 749 712 711 715 751 750 783 753 655 661 749 755 687 754 784 752 751 665 759 753 661 762 785 756 693 760 754 701 603 731 688 702 734 771 758 690 757 661 701 786 688 716 788 789 715 758 787 680 661 701 759 717 716 736 761 760 790 763 665 680 759 765 694 764 791 762 761 706 778 763 680 781 792 766 707 779 764 727 629 719 723 729 722 793 769 726 767 639 723 772 674 725 794 775 700 768 773 727 639 723 737 728 725 769 770 738 795 741 643 727 737 743 730 796 777 740 770 701 674 772 731 735 773 774 771 733 797 737 639 772 701 738 775 798 776 703 774 680 737 799 701 739 801 802 736 776 800 741 680 737 778 742 739 777 780 779 803 804 706 741 778 807 744 806 805 781 780 753 655 749 745 755 752 784 808 748 782 661 786 749 688 789 809 751 715 787 783 753 661 759 749 754 760 785 784 751 810 763 665 759 753 765 762 791 811 756 785 701 688 731 786 758 757 771 788 787 812 759 661 701 786 760 716 790 813 789 788 680 799 759 701 802 814 761 736 800 790 763 680 778 759 764 779 792 791 761 815 804 706 778 763 807 781 805 816 766 792 727 719 817 723 793 819 820 769 767 818 737 639 723 772 738 725 795 798 775 794 727 821 737 723 824 823 770 769 822 795 741 727 825 737 796 827 828 777 770 826 701 772 829 731 774 831 832 771 797 830 737 701 772 799 776 774 798 801 800 833 778 680 737 799 779 739 803 834 802 801 741 835 778 737 838 837 780 777 836 803 804 741 839 778 806 841 842 805 780 840 753 745 749 843 808 782 784 846 845 844 759 661 786 749 760 789 813 810 751 809 753 759 847 749 785 849 850 784 810 848 763 753 759 851 811 785 791 854 853 852 701 829 786 731 832 855 788 771 830 812 759 701 799 786 790 800 814 813 788 856 778 680 799 759 779 802 834 815 761 814 763 778 857 759 792 859 860 791 815 858 804 763 778 861 816 792 805 864 863 862 727 817 821 723 820 865 824 769 818 822 737 723 821 772 795 822 823 798 794 866 825 727 821 737 827 824 867 826 770 823 741 825 835 737 828 868 838 777 826 836 799 701 772 829 800 774 833 869 832 831 737 870 799 772 873 872 801 798 871 833 778 737 835 799 803 836 837 834 801 874 839 741 835 778 841 838 875 840 780 837 804 839 876 778 842 878 879 805 840 877 753 847 843 749 850 880 846 784 848 844 759 749 786 847 810 809 813 849 848 881 851 753 759 847 853 785 852 882 850 849 763 857 851 759 860 883 854 791 858 852 799 701 829 786 800 832 869 856 788 855 759 799 884 786 814 886 887 813 856 885 778 759 799 857 815 814 834 859 858 888 861 763 778 857 863 792 862 889 860 859 804 876 861 778 879 890 864 805 877 862 825 727 817 821 827 820 891 867 824 865 737 821 870 772 823 892 873 798 866 871 825 737 821 835 826 823 867 868 836 893 839 741 825 835 841 828 894 875 838 868 799 772 870 829 833 871 872 869 831 895 835 737 870 799 836 873 896 874 801 872 778 835 897 799 837 899 900 834 874 898 839 778 835 876 840 837 875 878 877 901 902 804 839 876 905 842 904 903 879 878 851 753 847 843 853 850 882 906 846 880 759 884 847 786 887 907 849 813 885 881 851 759 857 847 852 858 883 882 849 908 861 763 857 851 863 860 889 909 854 883 799 786 829 884 856 855 869 886 885 910 857 759 799 884 858 814 888 911 887 886 778 897 857 799 900 912 859 834 898 888 861 778 876 857 862 877 890 889 859 913 902 804 876 861 905 879 903 914 864 890 825 817 915 821 891 917 918 867 865 916 835 737 821 870 836 823 893 896 873 892 825 919 835 821 922 921 868 867 920 893 839 825 923 835 894 925 926 875 868 924 799 870 927 829 872 929 930 869 895 928 835 799 870 897 874 872 896 899 898 931 876 778 835 897 877 837 901 932 900 899 839 933 876 835 936 935 878 875 934 901 902 839 937 876 904 939 940 903 878 938 851 843 847 941 906 880 882 944 943 942 857 759 884 847 858 887 911 908 849 907 851 857 945 847 883 947 948 882 908 946 861 851 857 949 909 883 889 952 951 950 799 927 884 829 930 953 886 869 928 910 857 799 897 884 888 898 912 911 886 954 876 778 897 857 877 900 932 913 859 912 861 876 955 857 890 957 958 889 913 956 902 861 876 959 914 890 903 962 961 960 825 915 919 821 918 963 922 867 916 920 835 821 919 870 893 920 921 896 892 964 923 825 919 835 925 922 965 924 868 921 839 923 933 835 926 966 936 875 924 934 897 799 870 927 898 872 931 967 930 929 835 968 897 870 971 970 899 896 969 931 876 835 933 897 901 934 935 932 899 972 937 839 933 876 939 936 973 938 878 935 902 937 974 876 940 976 977 903 938 975 851 945 941 847 948 978 944 882 946 942 857 847 884 945 908 907 911 947 946 979 949 851 857 945 951 883 950 980 948 947 861 955 949 857 958 981 952 889 956 950 897 799 927 884 898 930 967 954 886 953 857 897 982 884 912 984 985 911 954 983 876 857 897 955 913 912 932 957 956 986 959 861 876 955 961 890 960 987 958 957 902 974 959 876 977 988 962 903 975 960 923 825 915 919 925 918 989 965 922 963 835 919 968 870 921 990 971 896 964 969 923 835 919 933 924 921 965 966 934 991 937 839 923 933 939 926 992 973 936 966 897 870 968 927 931 969 970 967 929 993 933 835 968 897 934 971 994 972 899 970 876 933 995 897 935 997 998 932 972 996 937 876 933 974 938 935 973 976 975 999 1000 902 937 974 1003 940 1002 1001 977 976 949 851 945 941 951 948 980 1004 944 978 857 982 945 884 985 1005 947 911 983 979 949 857 955 945 950 956 981 980 947 1006 959 861 955 949 961 958 987 1007 952 981 897 884 927 982 954 953 967 984 983 1008 955 857 897 982 956 912 986 1009 985 984 876 995 955 897 998 1010 957 932 996 986 959 876 974 955 960 975 988 987 957 1011 1000 902 974 959 1003 977 1001 1012 962 988 923 915 1013 919 989 1015 1016 965 963 1014 933 835 919 968 934 921 991 994 971 990 923 1017 933 919 1020 1019 966 965 1018 991 937 923 1021 933 992 1023 1024 973 966 1022 897 968 1025 927 970 1027 1028 967 993 1026 933 897 968 995 972 970 994 997 996 1029 974 876 933 995 975 935 999 1030 998 997 937 1031 974 933 1034 1033 976 973 1032 999 1000 937 1035 974 1002 1037 1038 1001 976 1036 949 941 945 1039 1004 978 980 1042 1041 1040 955 857 982 945 956 985 1009 1006 947 1005 949 955 1043 945 981 1045 1046 980 1006 1044 959 949 955 1047 1007 981 987 1050 1049 1048 897 1025 982 927 1028 1051 984 967 1026 1008 955 897 995 982 986 996 1010 1009 984 1052 974 876 995 955 975 998 1030 1011 957 1010 959 974 1053 955 988 1055 1056 987 1011 1054 1000 959 974 1057 1012 988 1001 1060 1059 1058 923 1013 1017 919 1016 1061 1020 965 1014 1018 933 919 1017 968 991 1018 1019 994 990 1062 1021 923 1017 933 1023 1020 1063 1022 966 1019 937 1021 1031 933 1024 1064 1034 973 1022 1032 995 897 968 1025 996 970 1029 1065 1028 1027 933 1066 995 968 1069 1068 997 994 1067 1029 974 933 1031 995 999 1032 1033 1030 997 1070 1035 937 1031 974 1037 1034 1071 1036 976 1033 1000 1035 1072 974 1038 1074 1075 1001 1036 1073 949 1043 1039 945 1046 1076 1042 980 1044 1040 955 945 982 1043 1006 1005 1009 1045 1044 1077 1047 949 955 1043 1049 981 1048 1078 1046 1045 959 1053 1047 955 1056 1079 1050 987 1054 1048 995 897 1025 982 996 1028 1065 1052 984 1051 955 995 1080 982 1010 1082 1083 1009 1052 1081 974 955 995 1053 1011 1010 1030 1055 1054 1084 1057 959 974 1053 1059 988 1058 1085 1056 1055 1000 1072 1057 974 1075 1086 1060 1001 1073 1058 1021 923 1013 1017 1023 1016 1087 1063 1020 1061 933 1017 1066 968 1019 1088 1069 994 1062 1067 1021 933 1017 1031 1022 1019 1063 1064 1032 1089 1035 937 1021 1031 1037 1024 1090 1071 1034 1064 995 968 1066 1025 1029 1067 1068 1065 1027 1091 1031 933 1066 995 1032 1069 1092 1070 997 1068 974 1031 1093 995 1033 1095 1096 1030 1070 1094 1035 974 1031 1072 1036 1033 1071 1074 1073 1097 1098 1000 1035 1072 1101 1038 1100 1099 1075 1074 1047 949 1043 1039 1049 1046 1078 1102 1042 1076 955 1080 1043 982 1083 1103 1045 1009 1081 1077 1047 955 1053 1043 1048 1054 1079 1078 1045 1104 1057 959 1053 1047 1059 1056 1085 1105 1050 1079 995 982 1025 1080 1052 1051 1065 1082 1081 1106 1053 955 995 1080 1054 1010 1084 1107 1083 1082 974 1093 1053 995 1096 1108 1055 1030 1094 1084 1057 974 1072 1053 1058 1073 1086 1085 1055 1109 1098 1000 1072 1057 1101 1075 1099 1110 1060 1086 1021 1013 1111 1017 1087 1113 1114 1063 1061 1112 1031 933 1017 1066 1032 1019 1089 1092 1069 1088 1021 1115 1031 1017 1118 1117 1064 1063 1116 1089 1035 1021 1119 1031 1090 1121 1122 1071 1064 1120 995 1066 1123 1025 1068 1125 1126 1065 1091 1124 1031 995 1066 1093 1070 1068 1092 1095 1094 1127 1072 974 1031 1093 1073 1033 1097 1128 1096 1095 1035 1129 1072 1031 1132 1131 1074 1071 1130 1097 1098 1035 1133 1072 1100 1135 1136 1099 1074 1134 1047 1039 1043 1137 1102 1076 1078 1140 1139 1138 1053 955 1080 1043 1054 1083 1107 1104 1045 1103 1047 1053 1141 1043 1079 1143 1144 1078 1104 1142 1057 1047 1053 1145 1105 1079 1085 1148 1147 1146 995 1123 1080 1025 1126 1149 1082 1065 1124 1106 1053 995 1093 1080 1084 1094 1108 1107 1082 1150 1072 974 1093 1053 1073 1096 1128 1109 1055 1108 1057 1072 1151 1053 1086 1153 1154 1085 1109 1152 1098 1057 1072 1155 1110 1086 1099 1158 1157 1156 1021 1111 1115 1017 1114 1159 1118 1063 1112 1116 1031 1017 1115 1066 1089 1116 1117 1092 1088 1160 1119 1021 1115 1031 1121 1118 1161 1120 1064 1117 1035 1119 1129 1031 1122 1162 1132 1071 1120 1130 1093 995 1066 1123 1094 1068 1127 1163 1126 1125 1031 1164 1093 1066 1167 1166 1095 1092 1165 1127 1072 1031 1129 1093 1097 1130 1131 1128 1095 1168 1133 1035 1129 1072 1135 1132 1169 1134 1074 1131 1098 1133 1170 1072 1136 1172 1173 1099 1134 1171 1047 1141 1137 1043 1144 1174 1140 1078 1142 1138 1053 1043 1080 1141 1104 1103 1107 1143 1142 1175 1145 1047 1053 1141 1147 1079 1146 1176 1144 1143 1057 1151 1145 1053 1154 1177 1148 1085 1152 1146 1093 995 1123 1080 1094 1126 1163 1150 1082 1149 1053 1093 1178 1080 1108 1180 1181 1107 1150 1179 1072 1053 1093 1151 1109 1108 1128 1153 1152 1182 1155 1057 1072 1151 1157 1086 1156 1183 1154 1153 1098 1170 1155 1072 1173 1184 1158 1099 1171 1156 1119 1021 1111 1115 1121 1114 1185 1161 1118 1159 1031 1115 1164 1066 1117 1186 1167 1092 1160 1165 1119 1031 1115 1129 1120 1117 1161 1162 1130 1187 1133 1035 1119 1129 1135 1122 1188 1169 1132 1162 1093 1066 1164 1123 1127 1165 1166 1163 1125 1189 1129 1031 1164 1093 1130 1167 1190 1168 1095 1166 1072 1129 1191 1093 1131 1193 1194 1128 1168 1192 1133 1072 1129 1170 1134 1131 1169 1172 1171 1195 1196 1098 1133 1170 1199 1136 1198 1197 1173 1172 1145 1047 1141 1137 1147 1144 1176 1200 1140 1174 1053 1178 1141 1080 1181 1201 1143 1107 1179 1175 1145 1053 1151 1141 1146 1152 1177 1176 1143 1202 1155 1057 1151 1145 1157 1154 1183 1203 1148 1177 1093 1080 1123 1178 1150 1149 1163 1180 1179 1204 1151 1053 1093 1178 1152 1108 1182 1205 1181 1180 1072 1191 1151 1093 1194 1206 1153 1128 1192 1182 1155 1072 1170 1151 1156 1171 1184 1183 1153 1207 1196 1098 1170 1155 1199 1173 1197 1208 1158 1184 1119 1111 1209 1115 1185 1211 1212 1161 1159 1210 1129 1031 1115 1164 1130 1117 1187 1190 1167 1186 1119 1213 1129 1115 1216 1215 1162 1161 1214 1187 1133 1119 1217 1129 1188 1219 1220 1169 1162 1218 1093 1164 1221 1123 1166 1223 1224 1163 1189 1222 1129 1093 1164 1191 1168 1166 1190 1193 1192 1225 1170 1072 1129 1191 1171 1131 1195 1226 1194 1193 1133 1227 1170 1129 1230 1229 1172 1169 1228 1195 1196 1133 1231 1170 1198 1233 1234 1197 1172 1232 1145 1137 1141 1235 1200 1174 1176 1238 1237 1236 1151 1053 1178 1141 1152 1181 1205 1202 1143 1201 1145 1151 1239 1141 1177 1241 1242 1176 1202 1240 1155 1145 1151 1243 1203 1177 1183 1246 1245 1244 1093 1221 1178 1123 1224 1247 1180 1163 1222 1204 1151 1093 1191 1178 1182 1192 1206 1205 1180 1248 1170 1072 1191 1151 1171 1194 1226 1207 1153 1206 1155 1170 1249 1151 1184 1251 1252 1183 1207 1250 1196 1155 1170 1253 1208 1184 1197 1256 1255 1254 1119 1209 1213 1115 1212 1257 1216 1161 1210 1214 1129 1115 1213 1164 1187 1214 1215 1190 1186 1258 1217 1119 1213 1129 1219 1216 1259 1218 1162 1215 1133 1217 1227 1129 1220 1260 1230 1169 1218 1228 1191 1093 1164 1221 1192 1166 1225 1261 1224 1223 1129 1262 1191 1164 1265 1264 1193 1190 1263 1225 1170 1129 1227 1191 1195 1228 1229 1226 1193 1266 1231 1133 1227 1170 1233 1230 1267 1232 1172 1229 1196 1231 1268 1170 1234 1270 1271 1197 1232 1269 1145 1239 1235 1141 1242 1272 1238 1176 1240 1236 1151 1141 1178 1239 1202 1201 1205 1241 1240 1273 1243 1145 1151 1239 1245 1177 1244 1274 1242 1241 1155 1249 1243 1151 1252 1275 1246 1183 1250 1244 1191 1093 1221 1178 1192 1224 1261 1248 1180 1247 1151 1191 1276 1178 1206 1278 1279 1205 1248 1277 1170 1151 1191 1249 1207 1206 1226 1251 1250 1280 1253 1155 1170 1249 1255 1184 1254 1281 1252 1251 1196 1268 1253 1170 1271 1282 1256 1197 1269 1254 1217 1119 1209 1213 1219 1212 1283 1259 1216 1257 1129 1213 1262 1164 1215 1284 1265 1190 1258 1263 1217 1129 1213 1227 1218 1215 1259 1260 1228 1285 1231 1133 1217 1227 1233 1220 1286 1267 1230 1260 1191 1164 1262 1221 1225 1263 1264 1261 1223 1287 1227 1129 1262 1191 1228 1265 1288 1266 1193 1264 1170 1227 1289 1191 1229 1291 1292 1226 1266 1290 1231 1170 1227 1268 1232 1229 1267 1270 1269 1293 1294 1196 1231 1268 1297 1234 1296 1295 1271 1270 1243 1145 1239 1235 1245 1242 1274 1298 1238 1272 1151 1276 1239 1178 1279 1299 1241 1205 1277 1273 1243 1151 1249 1239 1244 1250 1275 1274 1241 1300 1253 1155 1249 1243 1255 1252 1281 1301 1246 1275 1191 1178 1221 1276 1248 1247 1261 1278 1277 1302 1249 1151 1191 1276 1250 1206 1280 1303 1279 1278 1170 1289 1249 1191 1292 1304 1251 1226 1290 1280 1253 1170 1268 1249 1254 1269 1282 1281 1251 1305 1294 1196 1268 1253 1297 1271 1295 1306 1256 1282 1217 1209 1307 1213 1283 1309 1310 1259 1257 1308 1227 1129 1213 1262 1228 1215 1285 1288 1265 1284 1217 1311 1227 1213 1314 1313 1260 1259 1312 1285 1231 1217 1315 1227 1286 1317 1318 1267 1260 1316 1191 1262 1319 1221 1264 1321 1322 1261 1287 1320 1227 1191 1262 1289 1266 1264 1288 1291 1290 1323 1268 1170 1227 1289 1269 1229 1293 1324 1292 1291 1231 1325 1268 1227 1328 1327 1270 1267 1326 1293 1294 1231 1329 1268 1296 1331 1332 1295 1270 1330 1243 1235 1239 1333 1298 1272 1274 1336 1335 1334 1249 1151 1276 1239 1250 1279 1303 1300 1241 1299 1243 1249 1337 1239 1275 1339 1340 1274 1300 1338 1253 1243 1249 1341 1301 1275 1281 1344 1343 1342 1191 1319 1276 1221 1322 1345 1278 1261 1320 1302 1249 1191 1289 1276 1280 1290 1304 1303 1278 1346 1268 1170 1289 1249 1269 1292 1324 1305 1251 1304 1253 1268 1347 1249 1282 1349 1350 1281 1305 1348 1294 1253 1268 1351 1306 1282 1295 1354 1353 1352 1217 1307 1311 1213 1310 1355 1314 1259 1308 1312 1227 1213 1311 1262 1285 1312 1313 1288 1284 1356 1315 1217 1311 1227 1317 1314 1357 1316 1260 1313 1231 1315 1325 1227 1318 1358 1328 1267 1316 1326 1289 1191 1262 1319 1290 1264 1323 1359 1322 1321 1227 1360 1289 1262 1363 1362 1291 1288 1361 1323 1268 1227 1325 1289 1293 1326 1327 1324 1291 1364 1329 1231 1325 1268 1331 1328 1365 1330 1270 1327 1294 1329 1366 1268 1332 1368 1369 1295 1330 1367 1243 1337 1333 1239 1340 1370 1336 1274 1338 1334 1249 1239 1276 1337 1300 1299 1303 1339 1338 1371 1341 1243 1249 1337 1343 1275 1342 1372 1340 1339 1253 1347 1341 1249 1350 1373 1344 1281 1348 1342 1289 1191 1319 1276 1290 1322 1359 1346 1278 1345 1249 1289 1374 1276 1304 1376 1377 1303 1346 1375 1268 1249 1289 1347 1305 1304 1324 1349 1348 1378 1351 1253 1268 1347 1353 1282 1352 1379 1350 1349 1294 1366 1351 1268 1369 1380 1354 1295 1367 1352 1315 1217 1307 1311 1317 1310 1381 1357 1314 1355 1227 1311 1360 1262 1313 1382 1363 1288 1356 1361 1315 1227 1311 1325 1316 1313 1357 1358 1326 1383 1329 1231 1315 1325 1331 1318 1384 1365 1328 1358 1289 1262 1360 1319 1323 1361 1362 1359 1321 1385 1325 1227 1360 1289 1326 1363 1386 1364 1291 1362 1268 1325 1387 1289 1327 1389 1390 1324 1364 1388 1329 1268 1325 1366 1330 1327 1365 1368 1367 1391 1392 1294 1329 1366 1395 1332 1394 1393 1369 1368 1341 1243 1337 1333 1343 1340 1372 1396 1336 1370 1249 1374 1337 1276 1377 1397 1339 1303 1375 1371 1341 1249 1347 1337 1342 1348 1373 1372 1339 1398 1351 1253 1347 1341 1353 1350 1379 1399 1344 1373 1289 1276 1319 1374 1346 1345 1359 1376 1375 1400 1347 1249 1289 1374 1348 1304 1378 1401 1377 1376 1268 1387 1347 1289 1390 1402 1349 1324 1388 1378 1351 1268 1366 1347 1352 1367 1380 1379 1349 1403 1392 1294 1366 1351 1395 1369 1393 1404 1354 1380 1315 1307 1405 1311 1381 1407 1408 1357 1355 1406 1325 1227 1311 1360 1326 1313 1383 1386 1363 1382 1315 1409 1325 1311 1412 1411 1358 1357 1410 1383 1329 1315 1413 1325 1384 1415 1416 1365 1358 1414 1289 1360 1417 1319 1362 1419 1420 1359 1385 1418 1325 1289 1360 1387 1364 1362 1386 1389 1388 1421 1366 1268 1325 1387 1367 1327 1391 1422 1390 1389 1329 1423 1366 1325 1426 1425 1368 1365 1424 1391 1392 1329 1427 1366 1394 1429 1430 1393 1368 1428 1341 1333 1337 1431 1396 1370 1372 1434 1433 1432 1347 1249 1374 1337 1348 1377 1401 1398 1339 1397 1341 1347 1435 1337 1373 1437 1438 1372 1398 1436 1351 1341 1347 1439 1399 1373 1379 1442 1441 1440 1289 1417 1374 1319 1420 1443 1376 1359 1418 1400 1347 1289 1387 1374 1378 1388 1402 1401 1376 1444 1366 1268 1387 1347 1367 1390 1422 1403 1349 1402 1351 1366 1445 1347 1380 1447 1448 1379 1403 1446 1392 1351 1366 1449 1404 1380 1393 1452 1451 1450 1315 1405 1409 1311 1408 1453 1412 1357 1406 1410 1325 1311 1409 1360 1383 1410 1411 1386 1382 1454 1413 1315 1409 1325 1415 1412 1455 1414 1358 1411 1329 1413 1423 1325 1416 1456 1426 1365 1414 1424 1387 1289 1360 1417 1388 1362 1421 1457 1420 1419 1325 1458 1387 1360 1461 1460 1389 1386 1459 1421 1366 1325 1423 1387 1391 1424 1425 1422 1389 1462 1427 1329 1423 1366 1429 1426 1463 1428 1368 1425 1392 1427 1464 1366 1430 1466 1467 1393 1428 1465 1341 1435 1431 1337 1438 1468 1434 1372 1436 1432 1347 1337 1374 1435 1398 1397 1401 1437 1436 1469 1439 1341 1347 1435 1441 1373 1440 1470 1438 1437 1351 1445 1439 1347 1448 1471 1442 1379 1446 1440 1387 1289 1417 1374 1388 1420 1457 1444 1376 1443 1347 1387 1472 1374 1402 1474 1475 1401 1444 1473 1366 1347 1387 1445 1403 1402 1422 1447 1446 1476 1449 1351 1366 1445 1451 1380 1450 1477 1448 1447 1392 1464 1449 1366 1467 1478 1452 1393 1465 1450 1413 1315 1405 1409 1415 1408 1479 1455 1412 1453 1325 1409 1458 1360 1411 1480 1461 1386 1454 1459 1413 1325 1409 1423 1414 1411 1455 1456 1424 1481 1427 1329 1413 1423 1429 1416 1482 1463 1426 1456 1387 1360 1458 1417 1421 1459 1460 1457 1419 1483 1423 1325 1458 1387 1424 1461 1484 1462 1389 1460 1366 1423 1485 1387 1425 1487 1488 1422 1462 1486 1427 1366 1423 1464 1428 1425 1463 1466 1465 1489 1490 1392 1427 1464 1493 1430 1492 1491 1467 1466 1439 1341 1435 1431 1441 1438 1470 1494 1434 1468 1347 1472 1435 1374 1475 1495 1437 1401 1473 1469 1439 1347 1445 1435 1440 1446 1471 1470 1437 1496 1449 1351 1445 1439 1451 1448 1477 1497 1442 1471 1387 1374 1417 1472 1444 1443 1457 1474 1473 1498 1445 1347 1387 1472 1446 1402 1476 1499 1475 1474 1366 1485 1445 1387 1488 1500 1447 1422 1486 1476 1449 1366 1464 1445 1450 1465 1478 1477 1447 1501 1490 1392 1464 1449 1493 1467 1491 1502 1452 1478 1413 1405 1503 1409 1479 1505 1506 1455 1453 1504 1423 1325 1409 1458 1424 1411 1481 1484 1461 1480 1413 1507 1423 1409 1510 1509 1456 1455 1508 1481 1427 1413 1511 1423 1482 1513 1514 1463 1456 1512 1387 1458 1515 1417 1460 1517 1518 1457 1483 1516 1423 1387 1458 1485 1462 1460 1484 1487 1486 1519 1464 1366 1423 1485 1465 1425 1489 1520 1488 1487 1427 1521 1464 1423 1524 1523 1466 1463 1522 1489 1490 1427 1525 1464 1492 1527 1528 1491 1466 1526 1439 1431 1435 1529 1494 1468 1470 1532 1531 1530 1445 1347 1472 1435 1446 1475 1499 1496 1437 1495 1439 1445 1533 1435 1471 1535 1536 1470 1496 1534 1449 1439 1445 1537 1497 1471 1477 1540 1539 1538 1387 1515 1472 1417 1518 1541 1474 1457 1516 1498 1445 1387 1485 1472 1476 1486 1500 1499 1474 1542 1464 1366 1485 1445 1465 1488 1520 1501 1447 1500 1449 1464 1543 1445 1478 1545 1546 1477 1501 1544 1490 1449 1464 1547 1502 1478 1491 1550 1549 1548 1413 1503 1507 1409 1506 1551 1510 1455 1504 1508 1423 1409 1507 1458 1481 1508 1509 1484 1480 1552 1511 1413 1507 1423 1513 1510 1553 1512 1456 1509 1427 1511 1521 1423 1514 1554 1524 1463 1512 1522 1485 1387 1458 1515 1486 1460 1519 1555 1518 1517 1423 1556 1485 1458 1559 1558 1487 1484 1557 1519 1464 1423 1521 1485 1489 1522 1523 1520 1487 1560 1525 1427 1521 1464 1527 1524 1561 1526 1466 1523 1490 1525 1562 1464 1528 1564 1565 1491 1526 1563 1439 1533 1529 1435 1536 1566 1532 1470 1534 1530 1445 1435 1472 1533 1496 1495 1499 1535 1534 1567 1537 1439 1445 1533 1539 1471 1538 1568 1536 1535 1449 1543 1537 1445 1546 1569 1540 1477 1544 1538 1485 1387 1515 1472 1486 1518 1555 1542 1474 1541 1445 1485 1570 1472 1500 1572 1573 1499 1542 1571 1464 1445 1485 1543 1501 1500 1520 1545 1544 1574 1547 1449 1464 1543 1549 1478 1548 1575 1546 1545 1490 1562 1547 1464 1565 1576 1550 1491 1563 1548 1511 1413 1503 1507 1513 1506 1577 1553 1510 1551 1423 1507 1556 1458 1509 1578 1559 1484 1552 1557 1511 1423 1507 1521 1512 1509 1553 1554 1522 1579 1525 1427 1511 1521 1527 1514 1580 1561 1524 1554 1485 1458 1556 1515 1519 1557 1558 1555 1517 1581 1521 1423 1556 1485 1522 1559 1582 1560 1487 1558 1464 1521 1583 1485 1523 1585 1586 1520 1560 1584 1525 1464 1521 1562 1526 1523 1561 1564 1563 1587 1588 1490 1525 1562 1591 1528 1590 1589 1565 1564 1537 1439 1533 1529 1539 1536 1568 1592 1532 1566 1445 1570 1533 1472 1573 1593 1535 1499 1571 1567 1537 1445 1543 1533 1538 1544 1569 1568 1535 1594 1547 1449 1543 1537 1549 1546 1575 1595 1540 1569 1485 1472 1515 1570 1542 1541 1555 1572 1571 1596 1543 1445 1485 1570 1544 1500 1574 1597 1573 1572 1464 1583 1543 1485 1586 1598 1545 1520 1584 1574 1547 1464 1562 1543 1548 1563 1576 1575 1545 1599 1588 1490 1562 1547 1591 1565 1589 1600 1550 1576 1511 1503 1601 1507 1577 1603 1604 1553 1551 1602 1521 1423 1507 1556 1522 1509 1579 1582 1559 1578 1511 1605 1521 1507 1608 1607 1554 1553 1606 1579 1525 1511 1609 1521 1580 1611 1612 1561 1554 1610 1485 1556 1613 1515 1558 1615 1616 1555 1581 1614 1521 1485 1556 1583 1560 1558 1582 1585 1584 1617 1562 1464 1521 1583 1563 1523 1587 1618 1586 1585 1525 1619 1562 1521 1622 1621 1564 1561 1620 1587 1588 1525 1623 1562 1590 1625 1626 1589 1564 1624 1537 1529 1533 1627 1592 1566 1568 1630 1629 1628 1543 1445 1570 1533 1544 1573 1597 1594 1535 1593 1537 1543 1631 1533 1569 1633 1634 1568 1594 1632 1547 1537 1543 1635 1595 1569 1575 1638 1637 1636 1485 1613 1570 1515 1616 1639 1572 1555 1614 1596 1543 1485 1583 1570 1574 1584 1598 1597 1572 1640 1562 1464 1583 1543 1563 1586 1618 1599 1545 1598 1547 1562 1641 1543 1576 1643 1644 1575 1599 1642 1588 1547 1562 1645 1600 1576 1589 1648 1647 1646 1511 1601 1605 1507 1604 1649 1608 1553 1602 1606 1521 1507 1605 1556 1579 1606 1607 1582 1578 1650 1609 1511 1605 1521 1611 1608 1651 1610 1554 1607 1525 1609 1619 1521 1612 1652 1622 1561 1610 1620 1583 1485 1556 1613 1584 1558 1617 1653 1616 1615 1521 1654 1583 1556 1657 1656 1585 1582 1655 1617 1562 1521 1619 1583 1587 1620 1621 1618 1585 1658 1623 1525 1619 1562 1625 1622 1659 1624 1564 1621 1588 1623 1660 1562 1626 1662 1663 1589 1624 1661 1537 1631 1627 1533 1634 1664 1630 1568 1632 1628 1543 1533 1570 1631 1594 1593 1597 1633 1632 1665 1635 1537 1543 1631 1637 1569 1636 1666 1634 1633 1547 1641 1635 1543 1644 1667 1638 1575 1642 1636 1583 1485 1613 1570 1584 1616 1653 1640 1572 1639 1543 1583 1668 1570 1598 1670 1671 1597 1640 1669 1562 1543 1583 1641 1599 1598 1618 1643 1642 1672 1645 1547 1562 1641 1647 1576 1646 1673 1644 1643 1588 1660 1645 1562 1663 1674 1648 1589 1661 1646 1609 1511 1601 1605 1611 1604 1675 1651 1608 1649 1521 1605 1654 1556 1607 1676 1657 1582 1650 1655 1609 1521 1605 1619 1610 1607 1651 1652 1620 1677 1623 1525 1609 1619 1625 1612 1678 1659 1622 1652 1583 1556 1654 1613 1617 1655 1656 1653 1615 1679 1619 1521 1654 1583 1620 1657 1680 1658 1585 1656 1562 1619 1681 1583 1621 1683 1684 1618 1658 1682 1623 1562 1619 1660 1624 1621 1659 1662 1661 1685 1686 1588 1623 1660 1689 1626 1688 1687 1663 1662 1635 1537 1631 1627 1637 1634 1666 1690 1630 1664 1543 1668 1631 1570 1671 1691 1633 1597 1669 1665 1635 1543 1641 1631 1636 1642 1667 1666 1633 1692 1645 1547 1641 1635 1647 1644 1673 1693 1638 1667 1583 1570 1613 1668 1640 1639 1653 1670 1669 1694 1641 1543 1583 1668 1642 1598 1672 1695 1671 1670 1562 1681 1641 1583 1684 1696 1643 1618 1682 1672 1645 1562 1660 1641 1646 1661 1674 1673 1643 1697 1686 1588 1660 1645 1689 1663 1687 1698 1648 1674 1609 1601 1699 1605 1675 1701 1702 1651 1649 1700 1619 1521 1605 1654 1620 1607 1677 1680 1657 1676 1609 1703 1619 1605 1706 1705 1652 1651 1704 1677 1623 1609 1707 1619 1678 1709 1710 1659 1652 1708 1583 1654 1711 1613 1656 1713 1714 1653 1679 1712 1619 1583 1654 1681 1658 1656 1680 1683 1682 1715 1660 1562 1619 1681 1661 1621 1685 1716 1684 1683 1623 1717 1660 1619 1720 1719 1662 1659 1718 1685 1686 1623 1721 1660 1688 1723 1724 1687 1662 1722 1635 1627 1631 1725 1690 1664 1666 1728 1727 1726 1641 1543 1668 1631 1642 1671 1695 1692 1633 1691 1635 1641 1729 1631 1667 1731 1732 1666 1692 1730 1645 1635 1641 1733 1693 1667 1673 1736 1735 1734 1583 1711 1668 1613 1714 1737 1670 1653 1712 1694 1641 1583 1681 1668 1672 1682 1696 1695 1670 1738 1660 1562 1681 1641 1661 1684 1716 1697 1643 1696 1645 1660 1739 1641 1674 1741 1742 1673 1697 1740 1686 1645 1660 1743 1698 1674 1687 1746 1745 1744 1609 1699 1703 1605 1702 1747 1706 1651 1700 1704 1619 1605 1703 1654 1677 1704 1705 1680 1676 1748 1707 1609 1703 1619 1709 1706 1749 1708 1652 1705 1623 1707 1717 1619 1710 1750 1720 1659 1708 1718 1681 1583 1654 1711 1682 1656 1715 1751 1714 1713 1619 1752 1681 1654 1755 1754 1683 1680 1753 1715 1660 1619 1717 1681 1685 1718 1719 1716 1683 1756 1721 1623 1717 1660 1723 1720 1757 1722 1662 1719 1686 1721 1758 1660 1724 1760 1761 1687 1722 1759 1635 1729 1725 1631 1732 1762 1728 1666 1730 1726 1641 1631 1668 1729 1692 1691 1695 1731 1730 1763 1733 1635 1641 1729 1735 1667 1734 1764 1732 1731 1645 1739 1733 1641 1742 1765 1736 1673 1740 1734 1681 1583 1711 1668 1682 1714 1751 1738 1670 1737 1641 1681 1766 1668 1696 1768 1769 1695 1738 1767 1660 1641 1681 1739 1697 1696 1716 1741 1740 1770 1743 1645 1660 1739 1745 1674 1744 1771 1742 1741 1686 1758 1743 1660 1761 1772 1746 1687 1759 1744 1707 1609 1699 1703 1709 1702 1773 1749 1706 1747 1619 1703 1752 1654 1705 1774 1755 1680 1748 1753 1707 1619 1703 1717 1708 1705 1749 1750 1718 1775 1721 1623 1707 1717 1723 1710 1776 1757 1720 1750 1681 1654 1752 1711 1715 1753 1754 1751 1713 1777 1717 1619 1752 1681 1718 1755 1778 1756 1683 1754 1660 1717 1779 1681 1719 1781 1782 1716 1756 1780 1721 1660 1717 1758 1722 1719 1757 1760 1759 1783 1784 1686 1721 1758 1787 1724 1786 1785 1761 1760 1733 1635 1729 1725 1735 1732 1764 1788 1728 1762 1641 1766 1729 1668 1769 1789 1731 1695 1767 1763 1733 1641 1739 1729 1734 1740 1765 1764 1731 1790 1743 1645 1739 1733 1745 1742 1771 1791 1736 1765 1681 1668 1711 1766 1738 1737 1751 1768 1767 1792 1739 1641 1681 1766 1740 1696 1770 1793 1769 1768 1660 1779 1739 1681 1782 1794 1741 1716 1780 1770 1743 1660 1758 1739 1744 1759 1772 1771 1741 1795 1784 1686 1758 1743 1787 1761 1785 1796 1746 1772 1707 1699 1797 1703 1773 1799 1800 1749 1747 1798 1717 1619 1703 1752 1718 1705 1775 1778 1755 1774 1707 1801 1717 1703 1804 1803 1750 1749 1802 1775 1721 1707 1805 1717 1776 1807 1808 1757 1750 1806 1681 1752 1809 1711 1754 1811 1812 1751 1777 1810 1717 1681 1752 1779 1756 1754 1778 1781 1780 1813 1758 1660 1717 1779 1759 1719 1783 1814 1782 1781 1721 1815 1758 1717 1818 1817 1760 1757 1816 1783 1784 1721 1819 1758 1786 1821 1822 1785 1760 1820 1733 1725 1729 1823 1788 1762 1764 1826 1825 1824 1739 1641 1766 1729 1740 1769 1793 1790 1731 1789 1733 1739 1827 1729 1765 1829 1830 1764 1790 1828 1743 1733 1739 1831 1791 1765 1771 1834 1833 1832 1681 1809 1766 1711 1812 1835 1768 1751 1810 1792 1739 1681 1779 1766 1770 1780 1794 1793 1768 1836 1758 1660 1779 1739 1759 1782 1814 1795 1741 1794 1743 1758 1837 1739 1772 1839 1840 1771 1795 1838 1784 1743 1758 1841 1796 1772 1785 1844 1843 1842 1707 1797 1801 1703 1800 1845 1804 1749 1798 1802 1717 1703 1801 1752 1775 1802 1803 1778 1774 1846 1805 1707 1801 1717 1807 1804 1847 1806 1750 1803 1721 1805 1815 1717 1808 1848 1818 1757 1806 1816 1779 1681 1752 1809 1780 1754 1813 1849 1812 1811 1717 1850 1779 1752 1853 1852 1781 1778 1851 1813 1758 1717 1815 1779 1783 1816 1817 1814 1781 1854 1819 1721 1815 1758 1821 1818 1855 1820 1760 1817 1784 1819 1856 1758 1822 1858 1859 1785 1820 1857 1733 1827 1823 1729 1830 1860 1826 1764 1828 1824 1739 1729 1766 1827 1790 1789 1793 1829 1828 1861 1831 1733 1739 1827 1833 1765 1832 1862 1830 1829 1743 1837 1831 1739 1840 1863 1834 1771 1838 1832 1779 1681 1809 1766 1780 1812 1849 1836 1768 1835 1739 1779 1864 1766 1794 1866 1867 1793 1836 1865 1758 1739 1779 1837 1795 1794 1814 1839 1838 1868 1841 1743 1758 1837 1843 1772 1842 1869 1840 1839 1784 1856 1841 1758 1859 1870 1844 1785 1857 1842 1805 1707 1797 1801 1807 1800 1871 1847 1804 1845 1717 1801 1850 1752 1803 1872 1853 1778 1846 1851 1805 1717 1801 1815 1806 1803 1847 1848 1816 1873 1819 1721 1805 1815 1821 1808 1874 1855 1818 1848 1779 1752 1850 1809 1813 1851 1852 1849 1811 1875 1815 1717 1850 1779 1816 1853 1876 1854 1781 1852 1758 1815 1877 1779 1817 1879 1880 1814 1854 1878 1819 1758 1815 1856 1820 1817 1855 1858 1857 1881 1882 1784 1819 1856 1885 1822 1884 1883 1859 1858 1831 1733 1827 1823 1833 1830 1862 1886 1826 1860 1739 1864 1827 1766 1867 1887 1829 1793 1865 1861 1831 1739 1837 1827 1832 1838 1863 1862 1829 1888 1841 1743 1837 1831 1843 1840 1869 1889 1834 1863 1779 1766 1809 1864 1836 1835 1849 1866 1865 1890 1837 1739 1779 1864 1838 1794 1868 1891 1867 1866 1758 1877 1837 1779 1880 1892 1839 1814 1878 1868 1841 1758 1856 1837 1842 1857 1870 1869 1839 1893 1882 1784 1856 1841 1885 1859 1883 1894 1844 1870 1805 1797 1895 1801 1871 1897 1898 1847 1845 1896 1815 1717 1801 1850 1816 1803 1873 1876 1853 1872 1805 1899 1815 1801 1902 1901 1848 1847 1900 1873 1819 1805 1903 1815 1874 1905 1906 1855 1848 1904 1779 1850 1907 1809 1852 1909 1910 1849 1875 1908 1815 1779 1850 1877 1854 1852 1876 1879 1878 1911 1856 1758 1815 1877 1857 1817 1881 1912 1880 1879 1819 1913 1856 1815 1916 1915 1858 1855 1914 1881 1882 1819 1917 1856 1884 1919 1920 1883 1858 1918 1831 1823 1827 1921 1886 1860 1862 1924 1923 1922 1837 1739 1864 1827 1838 1867 1891 1888 1829 1887 1831 1837 1925 1827 1863 1927 1928 1862 1888 1926 1841 1831 1837 1929 1889 1863 1869 1932 1931 1930 1779 1907 1864 1809 1910 1933 1866 1849 1908 1890 1837 1779 1877 1864 1868 1878 1892 1891 1866 1934 1856 1758 1877 1837 1857 1880 1912 1893 1839 1892 1841 1856 1935 1837 1870 1937 1938 1869 1893 1936 1882 1841 1856 1939 1894 1870 1883 1942 1941 1940 1805 1895 1899 1801 1898 1943 1902 1847 1896 1900 1815 1801 1899 1850 1873 1900 1901 1876 1872 1944 1903 1805 1899 1815 1905 1902 1945 1904 1848 1901 1819 1903 1913 1815 1906 1946 1916 1855 1904 1914 1877 1779 1850 1907 1878 1852 1911 1947 1910 1909 1815 1948 1877 1850 1951 1950 1879 1876 1949 1911 1856 1815 1913 1877 1881 1914 1915 1912 1879 1952 1917 1819 1913 1856 1919 1916 1953 1918 1858 1915 1882 1917 1954 1856 1920 1956 1957 1883 1918 1955 1831 1925 1921 1827 1928 1958 1924 1862 1926 1922 1837 1827 1864 1925 1888 1887 1891 1927 1926 1959 1929 1831 1837 1925 1931 1863 1930 1960 1928 1927 1841 1935 1929 1837 1938 1961 1932 1869 1936 1930 1877 1779 1907 1864 1878 1910 1947 1934 1866 1933 1837 1877 1962 1864 1892 1964 1965 1891 1934 1963 1856 1837 1877 1935 1893 1892 1912 1937 1936 1966 1939 1841 1856 1935 1941 1870 1940 1967 1938 1937 1882 1954 1939 1856 1957 1968 1942 1883 1955 1940 1903 1805 1895 1899 1905 1898 1969 1945 1902 1943 1815 1899 1948 1850 1901 1970 1951 1876 1944 1949 1903 1815 1899 1913 1904 1901 1945 1946 1914 1971 1917 1819 1903 1913 1919 1906 1972 1953 1916 1946 1877 1850 1948 1907 1911 1949 1950 1947 1909 1973 1913 1815 1948 1877 1914 1951 1974 1952 1879 1950 1856 1913 1975 1877 1915 1977 1978 1912 1952 1976 1917 1856 1913 1954 1918 1915 1953 1956 1955 1979 1980 1882 1917 1954 1983 1920 1982 1981 1957 1956 1929 1831 1925 1921 1931 1928 1960 1984 1924 1958 1837 1962 1925 1864 1965 1985 1927 1891 1963 1959 1929 1837 1935 1925 1930 1936 1961 1960 1927 1986 1939 1841 1935 1929 1941 1938 1967 1987 1932 1961 1877 1864 1907 1962 1934 1933 1947 1964 1963 1988 1935 1837 1877 1962 1936 1892 1966 1989 1965 1964 1856 1975 1935 1877 1978 1990 1937 1912 1976 1966 1939 1856 1954 1935 1940 1955 1968 1967 1937 1991 1980 1882 1954 1939 1983 1957 1981 1992 1942 1968 1903 1895 1993 1899 1969 1995 1996 1945 1943 1994 1913 1815 1899 1948 1914 1901 1971 1974 1951 1970 1903 1997 1913 1899 2000 1999 1946 1945 1998 1971 1917 1903 2001 1913 1972 2003 2004 1953 1946 2002 1877 1948 2005 1907 1950 2007 2008 1947 1973 2006 1913 1877 1948 1975 1952 1950 1974 1977 1976 2009 1954 1856 1913 1975 1955 1915 1979 2010 1978 1977 1917 2011 1954 1913 2014 2013 1956 1953 2012 1979 1980 1917 2015 1954 1982 2017 2018 1981 1956 2016 1929 1921 1925 2019 1984 1958 1960 2022 2021 2020 1935 1837 1962 1925 1936 1965 1989 1986 1927 1985 1929 1935 2023 1925 1961 2025 2026 1960 1986 2024 1939 1929 1935 2027 1987 1961 1967 2030 2029 2028 1877 2005 1962 1907 2008 2031 1964 1947 2006 1988 1935 1877 1975 1962 1966 1976 1990 1989 1964 2032 1954 1856 1975 1935 1955 1978 2010 1991 1937 1990 1939 1954 2033 1935 1968 2035 2036 1967 1991 2034 1980 1939 1954 2037 1992 1968 1981 2040 2039 2038 1903 1993 1997 1899 1996 2041 2000 1945 1994 1998 1913 1899 1997 1948 1971 1998 1999 1974 1970 2042 2001 1903 1997 1913 2003 2000 2043 2002 1946 1999 1917 2001 2011 1913 2004 2044 2014 1953 2002 2012 1975 1877 1948 2005 1976 1950 2009 2045 2008 2007 1913 2046 1975 1948 2049 2048 1977 1974 2047 2009 1954 1913 2011 1975 1979 2012 2013 2010 1977 2050 2015 1917 2011 1954 2017 2014 2051 2016 1956 2013 1980 2015 2052 1954 2018 2054 2055 1981 2016 2053 1929 2023 2019 1925 2026 2056 2022 1960 2024 2020 1935 1925 1962 2023 1986 1985 1989 2025 2024 2057 2027 1929 1935 2023 2029 1961 2028 2058 2026 2025 1939 2033 2027 1935 2036 2059 2030 1967 2034 2028 1975 1877 2005 1962 1976 2008 2045 2032 1964 2031 1935 1975 2060 1962 1990 2062 2063 1989 2032 2061 1954 1935 1975 2033 1991 1990 2010 2035 2034 2064 2037 1939 1954 2033 2039 1968 2038 2065 2036 2035 1980 2052 2037 1954 2055 2066 2040 1981 2053 2038 2001 1903 1993 1997 2003 1996 2067 2043 2000 2041 1913 1997 2046 1948 1999 2068 2049 1974 2042 2047 2001 1913 1997 2011 2002 1999 2043 2044 2012 2069 2015 1917 2001 2011 2017 2004 2070 2051 2014 2044 1975 1948 2046 2005 2009 2047 2048 2045 2007 2071 2011 1913 2046 1975 2012 2049 2072 2050 1977 2048 1954 2011 2073 1975 2013 2075 2076 2010 2050 2074 2015 1954 2011 2052 2016 2013 2051 2054 2053 2077 2078 1980 2015 2052 2081 2018 2080 2079 2055 2054 2027 1929 2023 2019 2029 2026 2058 2082 2022 2056 1935 2060 2023 1962 2063 2083 2025 1989 2061 2057 2027 1935 2033 2023 2028 2034 2059 2058 2025 2084 2037 1939 2033 2027 2039 2036 2065 2085 2030 2059 1975 1962 2005 2060 2032 2031 2045 2062 2061 2086 2033 1935 1975 2060 2034 1990 2064 2087 2063 2062 1954 2073 2033 1975 2076 2088 2035 2010 2074 2064 2037 1954 2052 2033 2038 2053 2066 2065 2035 2089 2078 1980 2052 2037 2081 2055 2079 2090 2040 2066 2001 1993 2091 1997 2067 2093 2094 2043 2041 2092 2011 1913 1997 2046 2012 1999 2069 2072 2049 2068 2001 2095 2011 1997 2098 2097 2044 2043 2096 2069 2015 2001 2099 2011 2070 2101 2102 2051 2044 2100 1975 2046 2103 2005 2048 2105 2106 2045 2071 2104 2011 1975 2046 2073 2050 2048 2072 2075 2074 2107 2052 1954 2011 2073 2053 2013 2077 2108 2076 2075 2015 2109 2052 2011 2112 2111 2054 2051 2110 2077 2078 2015 2113 2052 2080 2115 2116 2079 2054 2114 2027 2019 2023 2117 2082 2056 2058 2120 2119 2118 2033 1935 2060 2023 2034 2063 2087 2084 2025 2083 2027 2033 2121 2023 2059 2123 2124 2058 2084 2122 2037 2027 2033 2125 2085 2059 2065 2128 2127 2126 1975 2103 2060 2005 2106 2129 2062 2045 2104 2086 2033 1975 2073 2060 2064 2074 2088 2087 2062 2130 2052 1954 2073 2033 2053 2076 2108 2089 2035 2088 2037 2052 2131 2033 2066 2133 2134 2065 2089 2132 2078 2037 2052 2135 2090 2066 2079 2138 2137 2136 2001 2091 2095 1997 2094 2139 2098 2043 2092 2096 2011 1997 2095 2046 2069 2096 2097 2072 2068 2140 2099 2001 2095 2011 2101 2098 2141 2100 2044 2097 2015 2099 2109 2011 2102 2142 2112 2051 2100 2110 2073 1975 2046 2103 2074 2048 2107 2143 2106 2105 2011 2144 2073 2046 2147 2146 2075 2072 2145 2107 2052 2011 2109 2073 2077 2110 2111 2108 2075 2148 2113 2015 2109 2052 2115 2112 2149 2114 2054 2111 2078 2113 2150 2052 2116 2152 2153 2079 2114 2151 2027 2121 2117 2023 2124 2154 2120 2058 2122 2118 2033 2023 2060 2121 2084 2083 2087 2123 2122 2155 2125 2027 2033 2121 2127 2059 2126 2156 2124 2123 2037 2131 2125 2033 2134 2157 2128 2065 2132 2126 2073 1975 2103 2060 2074 2106 2143 2130 2062 2129 2033 2073 2158 2060 2088 2160 2161 2087 2130 2159 2052 2033 2073 2131 2089 2088 2108 2133 2132 2162 2135 2037 2052 2131 2137 2066 2136 2163 2134 2133 2078 2150 2135 2052 2153 2164 2138 2079 2151 2136 2099 2001 2091 2095 2101 2094 2165 2141 2098 2139 2011 2095 2144 2046 2097 2166 2147 2072 2140 2145 2099 2011 2095 2109 2100 2097 2141 2142 2110 2167 2113 2015 2099 2109 2115 2102 2168 2149 2112 2142 2073 2046 2144 2103 2107 2145 2146 2143 2105 2169 2109 2011 2144 2073 2110 2147 2170 2148 2075 2146 2052 2109 2171 2073 2111 2173 2174 2108 2148 2172 2113 2052 2109 2150 2114 2111 2149 2152 2151 2175 2176 2078 2113 2150 2179 2116 2178 2177 2153 2152 2125 2027 2121 2117 2127 2124 2156 2180 2120 2154 2033 2158 2121 2060 2161 2181 2123 2087 2159 2155 2125 2033 2131 2121 2126 2132 2157 2156 2123 2182 2135 2037 2131 2125 2137 2134 2163 2183 2128 2157 2073 2060 2103 2158 2130 2129 2143 2160 2159 2184 2131 2033 2073 2158 2132 2088 2162 2185 2161 2160 2052 2171 2131 2073 2174 2186 2133 2108 2172 2162 2135 2052 2150 2131 2136 2151 2164 2163 2133 2187 2176 2078 2150 2135 2179 2153 2177 2188 2138 2164 2099 2091 2189 2095 2165 2191 2192 2141 2139 2190 2109 2011 2095 2144 2110 2097 2167 2170 2147 2166 2099 2193 2109 2095 2196 2195 2142 2141 2194 2167 2113 2099 2197 2109 2168 2199 2200 2149 2142 2198 2073 2144 2201 2103 2146 2203 2204 2143 2169 2202 2109 2073 2144 2171 2148 2146 2170 2173 2172 2205 2150 2052 2109 2171 2151 2111 2175 2206 2174 2173 2113 2207 2150 2109 2210 2209 2152 2149 2208 2175 2176 2113 2211 2150 2178 2213 2214 2177 2152 2212 2125 2117 2121 2215 2180 2154 2156 2218 2217 2216 2131 2033 2158 2121 2132 2161 2185 2182 2123 2181 2125 2131 2219 2121 2157 2221 2222 2156 2182 2220 2135 2125 2131 2223 2183 2157 2163 2226 2225 2224 2073 2201 2158 2103 2204 2227 2160 2143 2202 2184 2131 2073 2171 2158 2162 2172 2186 2185 2160 2228 2150 2052 2171 2131 2151 2174 2206 2187 2133 2186 2135 2150 2229 2131 2164 2231 2232 2163 2187 2230 2176 2135 2150 2233 2188 2164 2177 2236 2235 2234 2099 2189 2193 2095 2192 2237 2196 2141 2190 2194 2109 2095 2193 2144 2167 2194 2195 2170 2166 2238 2197 2099 2193 2109 2199 2196 2239 2198 2142 2195 2113 2197 2207 2109 2200 2240 2210 2149 2198 2208 2171 2073 2144 2201 2172 2146 2205 2241 2204 2203 2109 2242 2171 2144 2245 2244 2173 2170 2243 2205 2150 2109 2207 2171 2175 2208 2209 2206 2173 2246 2211 2113 2207 2150 2213 2210 2247 2212 2152 2209 2176 2211 2248 2150 2214 2250 2251 2177 2212 2249 2125 2219 2215 2121 2222 2252 2218 2156 2220 2216 2131 2121 2158 2219 2182 2181 2185 2221 2220 2253 2223 2125 2131 2219 2225 2157 2224 2254 2222 2221 2135 2229 2223 2131 2232 2255 2226 2163 2230 2224 2171 2073 2201 2158 2172 2204 2241 2228 2160 2227 2131 2171 2256 2158 2186 2258 2259 2185 2228 2257 2150 2131 2171 2229 2187 2186 2206 2231 2230 2260 2233 2135 2150 2229 2235 2164 2234 2261 2232 2231 2176 2248 2233 2150 2251 2262 2236 2177 2249 2234 2197 2099 2189 2193 2199 2192 2263 2239 2196 2237 2109 2193 2242 2144 2195 2264 2245 2170 2238 2243 2197 2109 2193 2207 2198 2195 2239 2240 2208 2265 2211 2113 2197 2207 2213 2200 2266 2247 2210 2240 2171 2144 2242 2201 2205 2243 2244 2241 2203 2267 2207 2109 2242 2171 2208 2245 2268 2246 2173 2244 2150 2207 2269 2171 2209 2271 2272 2206 2246 2270 2211 2150 2207 2248 2212 2209 2247 2250 2249 2273 2274 2176 2211 2248 2277 2214 2276 2275 2251 2250 2223 2125 2219 2215 2225 2222 2254 2278 2218 2252 2131 2256 2219 2158 2259 2279 2221 2185 2257 2253 2223 2131 2229 2219 2224 2230 2255 2254 2221 2280 2233 2135 2229 2223 2235 2232 2261 2281 2226 2255 2171 2158 2201 2256 2228 2227 2241 2258 2257 2282 2229 2131 2171 2256 2230 2186 2260 2283 2259 2258 2150 2269 2229 2171 2272 2284 2231 2206 2270 2260 2233 2150 2248 2229 2234 2249 2262 2261 2231 2285 2274 2176 2248 2233 2277 2251 2275 2286 2236 2262 2197 2189 2287 2193 2263 2289 2290 2239 2237 2288 2207 2109 2193 2242 2208 2195 2265 2268 2245 2264 2197 2291 2207 2193 2294 2293 2240 2239 2292 2265 2211 2197 2295 2207 2266 2297 2298 2247 2240 2296 2171 2242 2299 2201 2244 2301 2302 2241 2267 2300 2207 2171 2242 2269 2246 2244 2268 2271 2270 2303 2248 2150 2207 2269 2249 2209 2273 2304 2272 2271 2211 2305 2248 2207 2308 2307 2250 2247 2306 2273 2274 2211 2309 2248 2276 2311 2312 2275 2250 2310 2223 2215 2219 2313 2278 2252 2254 2316 2315 2314 2229 2131 2256 2219 2230 2259 2283 2280 2221 2279 2223 2229 2317 2219 2255 2319 2320 2254 2280 2318 2233 2223 2229 2321 2281 2255 2261 2324 2323 2322 2171 2299 2256 2201 2302 2325 2258 2241 2300 2282 2229 2171 2269 2256 2260 2270 2284 2283 2258 2326 2248 2150 2269 2229 2249 2272 2304 2285 2231 2284 2233 2248 2327 2229 2262 2329 2330 2261 2285 2328 2274 2233 2248 2331 2286 2262 2275 2334 2333 2332 2197 2287 2291 2193 2290 2335 2294 2239 2288 2292 2207 2193 2291 2242 2265 2292 2293 2268 2264 2336 2295 2197 2291 2207 2297 2294 2337 2296 2240 2293 2211 2295 2305 2207 2298 2338 2308 2247 2296 2306 2269 2171 2242 2299 2270 2244 2303 2339 2302 2301 2207 2340 2269 2242 2343 2342 2271 2268 2341 2303 2248 2207 2305 2269 2273 2306 2307 2304 2271 2344 2309 2211 2305 2248 2311 2308 2345 2310 2250 2307 2274 2309 2346 2248 2312 2348 2349 2275 2310 2347 2223 2317 2313 2219 2320 2350 2316 2254 2318 2314 2229 2219 2256 2317 2280 2279 2283 2319 2318 2351 2321 2223 2229 2317 2323 2255 2322 2352 2320 2319 2233 2327 2321 2229 2330 2353 2324 2261 2328 2322 2269 2171 2299 2256 2270 2302 2339 2326 2258 2325 2229 2269 2354 2256 2284 2356 2357 2283 2326 2355 2248 2229 2269 2327 2285 2284 2304 2329 2328 2358 2331 2233 2248 2327 2333 2262 2332 2359 2330 2329 2274 2346 2331 2248 2349 2360 2334 2275 2347 2332 2295 2197 2287 2291 2297 2290 2361 2337 2294 2335 2207 2291 2340 2242 2293 2362 2343 2268 2336 2341 2295 2207 2291 2305 2296 2293 2337 2338 2306 2363 2309 2211 2295 2305 2311 2298 2364 2345 2308 2338 2269 2242 2340 2299 2303 2341 2342 2339 2301 2365 2305 2207 2340 2269 2306 2343 2366 2344 2271 2342 2248 2305 2367 2269 2307 2369 2370 2304 2344 2368 2309 2248 2305 2346 2310 2307 2345 2348 2347 2371 2372 2274 2309 2346 2375 2312 2374 2373 2349 2348 2321 2223 2317 2313 2323 2320 2352 2376 2316 2350 2229 2354 2317 2256 2357 2377 2319 2283 2355 2351 2321 2229 2327 2317 2322 2328 2353 2352 2319 2378 2331 2233 2327 2321 2333 2330 2359 2379 2324 2353 2269 2256 2299 2354 2326 2325 2339 2356 2355 2380 2327 2229 2269 2354 2328 2284 2358 2381 2357 2356 2248 2367 2327 2269 2370 2382 2329 2304 2368 2358 2331 2248 2346 2327 2332 2347 2360 2359 2329 2383 2372 2274 2346 2331 2375 2349 2373 2384 2334 2360 2295 2287 2385 2291 2361 2387 2388 2337 2335 2386 2305 2207 2291 2340 2306 2293 2363 2366 2343 2362 2295 2389 2305 2291 2392 2391 2338 2337 2390 2363 2309 2295 2393 2305 2364 2395 2396 2345 2338 2394 2269 2340 2397 2299 2342 2399 2400 2339 2365 2398 2305 2269 2340 2367 2344 2342 2366 2369 2368 2401 2346 2248 2305 2367 2347 2307 2371 2402 2370 2369 2309 2403 2346 2305 2406 2405 2348 2345 2404 2371 2372 2309 2407 2346 2374 2409 2410 2373 2348 2408 2321 2313 2317 2411 2376 2350 2352 2414 2413 2412 2327 2229 2354 2317 2328 2357 2381 2378 2319 2377 2321 2327 2415 2317 2353 2417 2418 2352 2378 2416 2331 2321 2327 2419 2379 2353 2359 2422 2421 2420 2269 2397 2354 2299 2400 2423 2356 2339 2398 2380 2327 2269 2367 2354 2358 2368 2382 2381 2356 2424 2346 2248 2367 2327 2347 2370 2402 2383 2329 2382 2331 2346 2425 2327 2360 2427 2428 2359 2383 2426 2372 2331 2346 2429 2384 2360 2373 2432 2431 2430 2295 2385 2389 2291 2388 2433 2392 2337 2386 2390 2305 2291 2389 2340 2363 2390 2391 2366 2362 2434 2393 2295 2389 2305 2395 2392 2435 2394 2338 2391 2309 2393 2403 2305 2396 2436 2406 2345 2394 2404 2367 2269 2340 2397 2368 2342 2401 2437 2400 2399 2305 2438 2367 2340 2441 2440 2369 2366 2439 2401 2346 2305 2403 2367 2371 2404 2405 2402 2369 2442 2407 2309 2403 2346 2409 2406 2443 2408 2348 2405 2372 2407 2444 2346 2410 2446 2447 2373 2408 2445 2321 2415 2411 2317 2418 2448 2414 2352 2416 2412 2327 2317 2354 2415 2378 2377 2381 2417 2416 2449 2419 2321 2327 2415 2421 2353 2420 2450 2418 2417 2331 2425 2419 2327 2428 2451 2422 2359 2426 2420 2367 2269 2397 2354 2368 2400 2437 2424 2356 2423 2327 2367 2452 2354 2382 2454 2455 2381 2424 2453 2346 2327 2367 2425 2383 2382 2402 2427 2426 2456 2429 2331 2346 2425 2431 2360 2430 2457 2428 2427 2372 2444 2429 2346 2447 2458 2432 2373 2445 2430 2393 2295 2385 2389 2395 2388 2459 2435 2392 2433 2305 2389 2438 2340 2391 2460 2441 2366 2434 2439 2393 2305 2389 2403 2394 2391 2435 2436 2404 2461 2407 2309 2393 2403 2409 2396 2462 2443 2406 2436 2367 2340 2438 2397 2401 2439 2440 2437 2399 2463 2403 2305 2438 2367 2404 2441 2464 2442 2369 2440 2346 2403 2465 2367 2405 2467 2468 2402 2442 2466 2407 2346 2403 2444 2408 2405 2443 2446 2445 2469 2470 2372 2407 2444 2473 2410 2472 2471 2447 2446 2419 2321 2415 2411 2421 2418 2450 2474 2414 2448 2327 2452 2415 2354 2455 2475 2417 2381 2453 2449 2419 2327 2425 2415 2420 2426 2451 2450 2417 2476 2429 2331 2425 2419 2431 2428 2457 2477 2422 2451 2367 2354 2397 2452 2424 2423 2437 2454 2453 2478 2425 2327 2367 2452 2426 2382 2456 2479 2455 2454 2346 2465 2425 2367 2468 2480 2427 2402 2466 2456 2429 2346 2444 2425 2430 2445 2458 2457 2427 2481 2470 2372 2444 2429 2473 2447 2471 2482 2432 2458 2393 2385 2483 2389 2459 2485 2486 2435 2433 2484 2403 2305 2389 2438 2404 2391 2461 2464 2441 2460 2393 2487 2403 2389 2490 2489 2436 2435 2488 2461 2407 2393 2491 2403 2462 2493 2494 2443 2436 2492 2367 2438 2495 2397 2440 2497 2498 2437 2463 2496 2403 2367 2438 2465 2442 2440 2464 2467 2466 2499 2444 2346 2403 2465 2445 2405 2469 2500 2468 2467 2407 2501 2444 2403 2504 2503 2446 2443 2502 2469 2470 2407 2505 2444 2472 2507 2508 2471 2446 2506 2419 2411 2415 2509 2474 2448 2450 2512 2511 2510 2425 2327 2452 2415 2426 2455 2479 2476 2417 2475 2419 2425 2513 2415 2451 2515 2516 2450 2476 2514 2429 2419 2425 2517 2477 2451 2457 2520 2519 2518 2367 2495 2452 2397 2498 2521 2454 2437 2496 2478 2425 2367 2465 2452 2456 2466 2480 2479 2454 2522 2444 2346 2465 2425 2445 2468 2500 2481 2427 2480 2429 2444 2523 2425 2458 2525 2526 2457 2481 2524 2470 2429 2444 2527 2482 2458 2471 2530 2529 2528 2393 2483 2487 2389 2486 2531 2490 2435 2484 2488 2403 2389 2487 2438 2461 2488 2489 2464 2460 2532 2491 2393 2487 2403 2493 2490 2533 2492 2436 2489 2407 2491 2501 2403 2494 2534 2504 2443 2492 2502 2465 2367 2438 2495 2466 2440 2499 2535 2498 2497 2403 2536 2465 2438 2539 2538 2467 2464 2537 2499 2444 2403 2501 2465 2469 2502 2503 2500 2467 2540 2505 2407 2501 2444 2507 2504 2541 2506 2446 2503 2470 2505 2542 2444 2508 2544 2545 2471 2506 2543 2419 2513 2509 2415 2516 2546 2512 2450 2514 2510 2425 2415 2452 2513 2476 2475 2479 2515 2514 2547 2517 2419 2425 2513 2519 2451 2518 2548 2516 2515 2429 2523 2517 2425 2526 2549 2520 2457 2524 2518 2465 2367 2495 2452 2466 2498 2535 2522 2454 2521 2425 2465 2550 2452 2480 2552 2553 2479 2522 2551 2444 2425 2465 2523 2481 2480 2500 2525 2524 2554 2527 2429 2444 2523 2529 2458 2528 2555 2526 2525 2470 2542 2527 2444 2545 2556 2530 2471 2543 2528 2491 2393 2483 2487 2493 2486 2557 2533 2490 2531 2403 2487 2536 2438 2489 2558 2539 2464 2532 2537 2491 2403 2487 2501 2492 2489 2533 2534 2502 2559 2505 2407 2491 2501 2507 2494 2560 2541 2504 2534 2465 2438 2536 2495 2499 2537 2538 2535 2497 2561 2501 2403 2536 2465 2502 2539 2562 2540 2467 2538 2444 2501 2563 2465 2503 2565 2566 2500 2540 2564 2505 2444 2501 2542 2506 2503 2541 2544 2543 2567 2568 2470 2505 2542 2571 2508 2570 2569 2545 2544 2517 2419 2513 2509 2519 2516 2548 2572 2512 2546 2425 2550 2513 2452 2553 2573 2515 2479 2551 2547 2517 2425 2523 2513 2518 2524 2549 2548 2515 2574 2527 2429 2523 2517 2529 2526 2555 2575 2520 2549 2465 2452 2495 2550 2522 2521 2535 2552 2551 2576 2523 2425 2465 2550 2524 2480 2554 2577 2553 2552 2444 2563 2523 2465 2566 2578 2525 2500 2564 2554 2527 2444 2542 2523 2528 2543 2556 2555 2525 2579 2568 2470 2542 2527 2571 2545 2569 2580 2530 2556 2491 2483 2581 2487 2557 2583 2584 2533 2531 2582 2501 2403 2487 2536 2502 2489 2559 2562 2539 2558 2491 2585 2501 2487 2588 2587 2534 2533 2586 2559 2505 2491 2589 2501 2560 2591 2592 2541 2534 2590 2465 2536 2593 2495 2538 2595 2596 2535 2561 2594 2501 2465 2536 2563 2540 2538 2562 2565 2564 2597 2542 2444 2501 2563 2543 2503 2567 2598 2566 2565 2505 2599 2542 2501 2602 2601 2544 2541 2600 2567 2568 2505 2603 2542 2570 2605 2606 2569 2544 2604 2517 2509 2513 2607 2572 2546 2548 2610 2609 2608 2523 2425 2550 2513 2524 2553 2577 2574 2515 2573 2517 2523 2611 2513 2549 2613 2614 2548 2574 2612 2527 2517 2523 2615 2575 2549 2555 2618 2617 2616 2465 2593 2550 2495 2596 2619 2552 2535 2594 2576 2523 2465 2563 2550 2554 2564 2578 2577 2552 2620 2542 2444 2563 2523 2543 2566 2598 2579 2525 2578 2527 2542 2621 2523 2556 2623 2624 2555 2579 2622 2568 2527 2542 2625 2580 2556 2569 2628 2627 2626 2491 2581 2585 2487 2584 2629 2588 2533 2582 2586 2501 2487 2585 2536 2559 2586 2587 2562 2558 2630 2589 2491 2585 2501 2591 2588 2631 2590 2534 2587 2505 2589 2599 2501 2592 2632 2602 2541 2590 2600 2563 2465 2536 2593 2564 2538 2597 2633 2596 2595 2501 2634 2563 2536 2637 2636 2565 2562 2635 2597 2542 2501 2599 2563 2567 2600 2601 2598 2565 2638 2603 2505 2599 2542 2605 2602 2639 2604 2544 2601 2568 2603 2640 2542 2606 2642 2643 2569 2604 2641 2517 2611 2607 2513 2614 2644 2610 2548 2612 2608 2523 2513 2550 2611 2574 2573 2577 2613 2612 2645 2615 2517 2523 2611 2617 2549 2616 2646 2614 2613 2527 2621 2615 2523 2624 2647 2618 2555 2622 2616 2563 2465 2593 2550 2564 2596 2633 2620 2552 2619 2523 2563 2648 2550 2578 2650 2651 2577 2620 2649 2542 2523 2563 2621 2579 2578 2598 2623 2622 2652 2625 2527 2542 2621 2627 2556 2626 2653 2624 2623 2568 2640 2625 2542 2643 2654 2628 2569 2641 2626 2589 2491 2581 2585 2591 2584 2655 2631 2588 2629 2501 2585 2634 2536 2587 2656 2637 2562 2630 2635 2589 2501 2585 2599 2590 2587 2631 2632 2600 2657 2603 2505 2589 2599 2605 2592 2658 2639 2602 2632 2563 2536 2634 2593 2597 2635 2636 2633 2595 2659 2599 2501 2634 2563 2600 2637 2660 2638 2565 2636 2542 2599 2661 2563 2601 2663 2664 2598 2638 2662 2603 2542 2599 2640 2604 2601 2639 2642 2641 2665 2666 2568 2603 2640 2669 2606 2668 2667 2643 2642 2615 2517 2611 2607 2617 2614 2646 2670 2610 2644 2523 2648 2611 2550 2651 2671 2613 2577 2649 2645 2615 2523 2621 2611 2616 2622 2647 2646 2613 2672 2625 2527 2621 2615 2627 2624 2653 2673 2618 2647 2563 2550 2593 2648 2620 2619 2633 2650 2649 2674 2621 2523 2563 2648 2622 2578 2652 2675 2651 2650 2542 2661 2621 2563 2664 2676 2623 2598 2662 2652 2625 2542 2640 2621 2626 2641 2654 2653 2623 2677 2666 2568 2640 2625 2669 2643 2667 2678 2628 2654 2589 2581 2679 2585 2655 2681 2682 2631 2629 2680 2599 2501 2585 2634 2600 2587 2657 2660 2637 2656 2589 2683 2599 2585 2686 2685 2632 2631 2684 2657 2603 2589 2687 2599 2658 2689 2690 2639 2632 2688 2563 2634 2691 2593 2636 2693 2694 2633 2659 2692 2599 2563 2634 2661 2638 2636 2660 2663 2662 2695 2640 2542 2599 2661 2641 2601 2665 2696 2664 2663 2603 2697 2640 2599 2700 2699 2642 2639 2698 2665 2666 2603 2701 2640 2668 2703 2704 2667 2642 2702 2615 2607 2611 2705 2670 2644 2646 2708 2707 2706 2621 2523 2648 2611 2622 2651 2675 2672 2613 2671 2615 2621 2709 2611 2647 2711 2712 2646 2672 2710 2625 2615 2621 2713 2673 2647 2653 2716 2715 2714 2563 2691 2648 2593 2694 2717 2650 2633 2692 2674 2621 2563 2661 2648 2652 2662 2676 2675 2650 2718 2640 2542 2661 2621 2641 2664 2696 2677 2623 2676 2625 2640 2719 2621 2654 2721 2722 2653 2677 2720 2666 2625 2640 2723 2678 2654 2667 2726 2725 2724 2589 2679 2683 2585 2682 2727 2686 2631 2680 2684 2599 2585 2683 2634 2657 2684 2685 2660 2656 2728 2687 2589 2683 2599 2689 2686 2729 2688 2632 2685 2603 2687 2697 2599 2690 2730 2700 2639 2688 2698 2661 2563 2634 2691 2662 2636 2695 2731 2694 2693 2599 2732 2661 2634 2735 2734 2663 2660 2733 2695 2640 2599 2697 2661 2665 2698 2699 2696 2663 2736 2701 2603 2697 2640 2703 2700 2737 2702 2642 2699 2666 2701 2738 2640 2704 2740 2741 2667 2702 2739 2615 2709 2705 2611 2712 2742 2708 2646 2710 2706 2621 2611 2648 2709 2672 2671 2675 2711 2710 2743 2713 2615 2621 2709 2715 2647 2714 2744 2712 2711 2625 2719 2713 2621 2722 2745 2716 2653 2720 2714 2661 2563 2691 2648 2662 2694 2731 2718 2650 2717 2621 2661 2746 2648 2676 2748 2749 2675 2718 2747 2640 2621 2661 2719 2677 2676 2696 2721 2720 2750 2723 2625 2640 2719 2725 2654 2724 2751 2722 2721 2666 2738 2723 2640 2741 2752 2726 2667 2739 2724 2687 2589 2679 2683 2689 2682 2753 2729 2686 2727 2599 2683 2732 2634 2685 2754 2735 2660 2728 2733 2687 2599 2683 2697 2688 2685 2729 2730 2698 2755 2701 2603 2687 2697 2703 2690 2756 2737 2700 2730 2661 2634 2732 2691 2695 2733 2734 2731 2693 2757 2697 2599 2732 2661 2698 2735 2758 2736 2663 2734 2640 2697 2759 2661 2699 2761 2762 2696 2736 2760 2701 2640 2697 2738 2702 2699 2737 2740 2739 2763 2764 2666 2701 2738 2767 2704 2766 2765 2741 2740 2713 2615 2709 2705 2715 2712 2744 2768 2708 2742 2621 2746 2709 2648 2749 2769 2711 2675 2747 2743 2713 2621 2719 2709 2714 2720 2745 2744 2711 2770 2723 2625 2719 2713 2725 2722 2751 2771 2716 2745 2661 2648 2691 2746 2718 2717 2731 2748 2747 2772 2719 2621 2661 2746 2720 2676 2750 2773 2749 2748 2640 2759 2719 2661 2762 2774 2721 2696 2760 2750 2723 2640 2738 2719 2724 2739 2752 2751 2721 2775 2764 2666 2738 2723 2767 2741 2765 2776 2726 2752 2687 2679 2777 2683 2753 2779 2780 2729 2727 2778 2697 2599 2683 2732 2698 2685 2755 2758 2735 2754 2687 2781 2697 2683 2784 2783 2730 2729 2782 2755 2701 2687 2785 2697 2756 2787 2788 2737 2730 2786 2661 2732 2789 2691 2734 2791 2792 2731 2757 2790 2697 2661 2732 2759 2736 2734 2758 2761 2760 2793 2738 2640 2697 2759 2739 2699 2763 2794 2762 2761 2701 2795 2738 2697 2798 2797 2740 2737 2796 2763 2764 2701 2799 2738 2766 2801 2802 2765 2740 2800 2713 2705 2709 2803 2768 2742 2744 2806 2805 2804 2719 2621 2746 2709 2720 2749 2773 2770 2711 2769 2713 2719 2807 2709 2745 2809 2810 2744 2770 2808 2723 2713 2719 2811 2771 2745 2751 2814 2813 2812 2661 2789 2746 2691 2792 2815 2748 2731 2790 2772 2719 2661 2759 2746 2750 2760 2774 2773 2748 2816 2738 2640 2759 2719 2739 2762 2794 2775 2721 2774 2723 2738 2817 2719 2752 2819 2820 2751 2775 2818 2764 2723 2738 2821 2776 2752 2765 2824 2823 2822 2687 2777 2781 2683 2780 2825 2784 2729 2778 2782 2697 2683 2781 2732 2755 2782 2783 2758 2754 2826 2785 2687 2781 2697 2787 2784 2827 2786 2730 2783 2701 2785 2795 2697 2788 2828 2798 2737 2786 2796 2759 2661 2732 2789 2760 2734 2793 2829 2792 2791 2697 2830 2759 2732 2833 2832 2761 2758 2831 2793 2738 2697 2795 2759 2763 2796 2797 2794 2761 2834 2799 2701 2795 2738 2801 2798 2835 2800 2740 2797 2764 2799 2836 2738 2802 2838 2839 2765 2800 2837 2713 2807 2803 2709 2810 2840 2806 2744 2808 2804 2719 2709 2746 2807 2770 2769 2773 2809 2808 2841 2811 2713 2719 2807 2813 2745 2812 2842 2810 2809 2723 2817 2811 2719 2820 2843 2814 2751 2818 2812 2759 2661 2789 2746 2760 2792 2829 2816 2748 2815 2719 2759 2844 2746 2774 2846 2847 2773 2816 2845 2738 2719 2759 2817 2775 2774 2794 2819 2818 2848 2821 2723 2738 2817 2823 2752 2822 2849 2820 2819 2764 2836 2821 2738 2839 2850 2824 2765 2837 2822 2785 2687 2777 2781 2787 2780 2851 2827 2784 2825 2697 2781 2830 2732 2783 2852 2833 2758 2826 2831 2785 2697 2781 2795 2786 2783 2827 2828 2796 2853 2799 2701 2785 2795 2801 2788 2854 2835 2798 2828 2759 2732 2830 2789 2793 2831 2832 2829 2791 2855 2795 2697 2830 2759 2796 2833 2856 2834 2761 2832 2738 2795 2857 2759 2797 2859 2860 2794 2834 2858 2799 2738 2795 2836 2800 2797 2835 2838 2837 2861 2862 2764 2799 2836 2865 2802 2864 2863 2839 2838 2811 2713 2807 2803 2813 2810 2842 2866 2806 2840 2719 2844 2807 2746 2847 2867 2809 2773 2845 2841 2811 2719 2817 2807 2812 2818 2843 2842 2809 2868 2821 2723 2817 2811 2823 2820 2849 2869 2814 2843 2759 2746 2789 2844 2816 2815 2829 2846 2845 2870 2817 2719 2759 2844 2818 2774 2848 2871 2847 2846 2738 2857 2817 2759 2860 2872 2819 2794 2858 2848 2821 2738 2836 2817 2822 2837 2850 2849 2819 2873 2862 2764 2836 2821 2865 2839 2863 2874 2824 2850 2785 2777 2875 2781 2851 2877 2878 2827 2825 2876 2795 2697 2781 2830 2796 2783 2853 2856 2833 2852 2785 2879 2795 2781 2882 2881 2828 2827 2880 2853 2799 2785 2883 2795 2854 2885 2886 2835 2828 2884 2759 2830 2887 2789 2832 2889 2890 2829 2855 2888 2795 2759 2830 2857 2834 2832 2856 2859 2858 2891 2836 2738 2795 2857 2837 2797 2861 2892 2860 2859 2799 2893 2836 2795 2896 2895 2838 2835 2894 2861 2862 2799 2897 2836 2864 2899 2900 2863 2838 2898 2811 2803 2807 2901 2866 2840 2842 2904 2903 2902 2817 2719 2844 2807 2818 2847 2871 2868 2809 2867 2811 2817 2905 2807 2843 2907 2908 2842 2868 2906 2821 2811 2817 2909 2869 2843 2849 2912 2911 2910 2759 2887 2844 2789 2890 2913 2846 2829 2888 2870 2817 2759 2857 2844 2848 2858 2872 2871 2846 2914 2836 2738 2857 2817 2837 2860 2892 2873 2819 2872 2821 2836 2915 2817 2850 2917 2918 2849 2873 2916 2862 2821 2836 2919 2874 2850 2863 2922 2921 2920 2785 2875 2879 2781 2878 2923 2882 2827 2876 2880 2795 2781 2879 2830 2853 2880 2881 2856 2852 2924 2883 2785 2879 2795 2885 2882 2925 2884 2828 2881 2799 2883 2893 2795 2886 2926 2896 2835 2884 2894 2857 2759 2830 2887 2858 2832 2891 2927 2890 2889 2795 2928 2857 2830 2931 2930 2859 2856 2929 2891 2836 2795 2893 2857 2861 2894 2895 2892 2859 2932 2897 2799 2893 2836 2899 2896 2933 2898 2838 2895 2862 2897 2934 2836 2900 2936 2937 2863 2898 2935 2811 2905 2901 2807 2908 2938 2904 2842 2906 2902 2817 2807 2844 2905 2868 2867 2871 2907 2906 2939 2909 2811 2817 2905 2911 2843 2910 2940 2908 2907 2821 2915 2909 2817 2918 2941 2912 2849 2916 2910 2857 2759 2887 2844 2858 2890 2927 2914 2846 2913 2817 2857 2942 2844 2872 2944 2945 2871 2914 2943 2836 2817 2857 2915 2873 2872 2892 2917 2916 2946 2919 2821 2836 2915 2921 2850 2920 2947 2918 2917 2862 2934 2919 2836 2937 2948 2922 2863 2935 2920 2883 2785 2875 2879 2885 2878 2949 2925 2882 2923 2795 2879 2928 2830 2881 2950 2931 2856 2924 2929 2883 2795 2879 2893 2884 2881 2925 2926 2894 2951 2897 2799 2883 2893 2899 2886 2952 2933 2896 2926 2857 2830 2928 2887 2891 2929 2930 2927 2889 2953 2893 2795 2928 2857 2894 2931 2954 2932 2859 2930 2836 2893 2955 2857 2895 2957 2958 2892 2932 2956 2897 2836 2893 2934 2898 2895 2933 2936 2935 2959 2960 2862 2897 2934 2963 2900 2962 2961 2937 2936 2909 2811 2905 2901 2911 2908 2940 2964 2904 2938 2817 2942 2905 2844 2945 2965 2907 2871 2943 2939 2909 2817 2915 2905 2910 2916 2941 2940 2907 2966 2919 2821 2915 2909 2921 2918 2947 2967 2912 2941 2857 2844 2887 2942 2914 2913 2927 2944 2943 2968 2915 2817 2857 2942 2916 2872 2946 2969 2945 2944 2836 2955 2915 2857 2958 2970 2917 2892 2956 2946 2919 2836 2934 2915 2920 2935 2948 2947 2917 2971 2960 2862 2934 2919 2963 2937 2961 2972 2922 2948 2883 2875 2973 2879 2949 2975 2976 2925 2923 2974 2893 2795 2879 2928 2894 2881 2951 2954 2931 2950 2883 2977 2893 2879 2980 2979 2926 2925 2978 2951 2897 2883 2981 2893 2952 2983 2984 2933 2926 2982 2857 2928 2985 2887 2930 2987 2988 2927 2953 2986 2893 2857 2928 2955 2932 2930 2954 2957 2956 2989 2934 2836 2893 2955 2935 2895 2959 2990 2958 2957 2897 2991 2934 2893 2994 2993 2936 2933 2992 2959 2960 2897 2995 2934 2962 2997 2998 2961 2936 2996 2909 2901 2905 2999 2964 2938 2940 3002 3001 3000 2915 2817 2942 2905 2916 2945 2969 2966 2907 2965 2909 2915 3003 2905 2941 3005 3006 2940 2966 3004 2919 2909 2915 3007 2967 2941 2947 3010 3009 3008 2857 2985 2942 2887 2988 3011 2944 2927 2986 2968 2915 2857 2955 2942 2946 2956 2970 2969 2944 3012 2934 2836 2955 2915 2935 2958 2990 2971 2917 2970 2919 2934 3013 2915 2948 3015 3016 2947 2971 3014 2960 2919 2934 3017 2972 2948 2961 3020 3019 3018 2883 2973 2977 2879 2976 3021 2980 2925 2974 2978 2893 2879 2977 2928 2951 2978 2979 2954 2950 3022 2981 2883 2977 2893 2983 2980 3023 2982 2926 2979 2897 2981 2991 2893 2984 3024 2994 2933 2982 2992 2955 2857 2928 2985 2956 2930 2989 3025 2988 2987 2893 3026 2955 2928 3029 3028 2957 2954 3027 2989 2934 2893 2991 2955 2959 2992 2993 2990 2957 3030 2995 2897 2991 2934 2997 2994 3031 2996 2936 2993 2960 2995 3032 2934 2998 3034 3035 2961 2996 3033 2909 3003 2999 2905 3006 3036 3002 2940 3004 3000 2915 2905 2942 3003 2966 2965 2969 3005 3004 3037 3007 2909 2915 3003 3009 2941 3008 3038 3006 3005 2919 3013 3007 2915 3016 3039 3010 2947 3014 3008 2955 2857 2985 2942 2956 2988 3025 3012 2944 3011 2915 2955 3040 2942 2970 3042 3043 2969 3012 3041 2934 2915 2955 3013 2971 2970 2990 3015 3014 3044 3017 2919 2934 3013 3019 2948 3018 3045 3016 3015 2960 3032 3017 2934 3035 3046 3020 2961 3033 3018 2981 2883 2973 2977 2983 2976 3047 3023 2980 3021 2893 2977 3026 2928 2979 3048 3029 2954 3022 3027 2981 2893 2977 2991 2982 2979 3023 3024 2992 3049 2995 2897 2981 2991 2997 2984 3050 3031 2994 3024 2955 2928 3026 2985 2989 3027 3028 3025 2987 3051 2991 2893 3026 2955 2992 3029 3052 3030 2957 3028 2934 2991 3053 2955 2993 3055 3056 2990 3030 3054 2995 2934 2991 3032 2996 2993 3031 3034 3033 3057 3058 2960 2995 3032 3061 2998 3060 3059 3035 3034 3007 2909 3003 2999 3009 3006 3038 3062 3002 3036 2915 3040 3003 2942 3043 3063 3005 2969 3041 3037 3007 2915 3013 3003 3008 3014 3039 3038 3005 3064 3017 2919 3013 3007 3019 3016 3045 3065 3010 3039 2955 2942 2985 3040 3012 3011 3025 3042 3041 3066 3013 2915 2955 3040 3014 2970 3044 3067 3043 3042 2934 3053 3013 2955 3056 3068 3015 2990 3054 3044 3017 2934 3032 3013 3018 3033 3046 3045 3015 3069 3058 2960 3032 3017 3061 3035 3059 3070 3020 3046 2981 2973 3071 2977 3047 3073 3074 3023 3021 3072 2991 2893 2977 3026 2992 2979 3049 3052 3029 3048 2981 3075 2991 2977 3078 3077 3024 3023 3076 3049 2995 2981 3079 2991 3050 3081 3082 3031 3024 3080 2955 3026 3083 2985 3028 3085 3086 3025 3051 3084 2991 2955 3026 3053 3030 3028 3052 3055 3054 3087 3032 2934 2991 3053 3033 2993 3057 3088 3056 3055 2995 3089 3032 2991 3092 3091 3034 3031 3090 3057 3058 2995 3093 3032 3060 3095 3096 3059 3034 3094 3007 2999 3003 3097 3062 3036 3038 3100 3099 3098 3013 2915 3040 3003 3014 3043 3067 3064 3005 3063 3007 3013 3101 3003 3039 3103 3104 3038 3064 3102 3017 3007 3013 3105 3065 3039 3045 3108 3107 3106 2955 3083 3040 2985 3086 3109 3042 3025 3084 3066 3013 2955 3053 3040 3044 3054 3068 3067 3042 3110 3032 2934 3053 3013 3033 3056 3088 3069 3015 3068 3017 3032 3111 3013 3046 3113 3114 3045 3069 3112 3058 3017 3032 3115 3070 3046 3059 3118 3117 3116 2981 3071 3075 2977 3074 3119 3078 3023 3072 3076 2991 2977 3075 3026 3049 3076 3077 3052 3048 3120 3079 2981 3075 2991 3081 3078 3121 3080 3024 3077 2995 3079 3089 2991 3082 3122 3092 3031 3080 3090 3053 2955 3026 3083 3054 3028 3087 3123 3086 3085 2991 3124 3053 3026 3127 3126 3055 3052 3125 3087 3032 2991 3089 3053 3057 3090 3091 3088 3055 3128 3093 2995 3089 3032 3095 3092 3129 3094 3034 3091 3058 3093 3130 3032 3096 3132 3133 3059 3094 3131 3007 3101 3097 3003 3104 3134 3100 3038 3102 3098 3013 3003 3040 3101 3064 3063 3067 3103 3102 3135 3105 3007 3013 3101 3107 3039 3106 3136 3104 3103 3017 3111 3105 3013 3114 3137 3108 3045 3112 3106 3053 2955 3083 3040 3054 3086 3123 3110 3042 3109 3013 3053 3138 3040 3068 3140 3141 3067 3110 3139 3032 3013 3053 3111 3069 3068 3088 3113 3112 3142 3115 3017 3032 3111 3117 3046 3116 3143 3114 3113 3058 3130 3115 3032 3133 3144 3118 3059 3131 3116 3079 2981 3071 3075 3081 3074 3145 3121 3078 3119 2991 3075 3124 3026 3077 3146 3127 3052 3120 3125 3079 2991 3075 3089 3080 3077 3121 3122 3090 3147 3093 2995 3079 3089 3095 3082 3148 3129 3092 3122 3053 3026 3124 3083 3087 3125 3126 3123 3085 3149 3089 2991 3124 3053 3090 3127 3150 3128 3055 3126 3032 3089 3151 3053 3091 3153 3154 3088 3128 3152 3093 3032 3089 3130 3094 3091 3129 3132 3131 3155 3156 3058 3093 3130 3159 3096 3158 3157 3133 3132 3105 3007 3101 3097 3107 3104 3136 3160 3100 3134 3013 3138 3101 3040 3141 3161 3103 3067 3139 3135 3105 3013 3111 3101 3106 3112 3137 3136 3103 3162 3115 3017 3111 3105 3117 3114 3143 3163 3108 3137 3053 3040 3083 3138 3110 3109 3123 3140 3139 3164 3111 3013 3053 3138 3112 3068 3142 3165 3141 3140 3032 3151 3111 3053 3154 3166 3113 3088 3152 3142 3115 3032 3130 3111 3116 3131 3144 3143 3113 3167 3156 3058 3130 3115 3159 3133 3157 3168 3118 3144 3079 3071 3169 3075 3145 3171 3172 3121 3119 3170 3089 2991 3075 3124 3090 3077 3147 3150 3127 3146 3079 3173 3089 3075 3176 3175 3122 3121 3174 3147 3093 3079 3177 3089 3148 3179 3180 3129 3122 3178 3053 3124 3181 3083 3126 3183 3184 3123 3149 3182 3089 3053 3124 3151 3128 3126 3150 3153 3152 3185 3130 3032 3089 3151 3131 3091 3155 3186 3154 3153 3093 3187 3130 3089 3190 3189 3132 3129 3188 3155 3156 3093 3191 3130 3158 3193 3194 3157 3132 3192 3105 3097 3101 3195 3160 3134 3136 3198 3197 3196 3111 3013 3138 3101 3112 3141 3165 3162 3103 3161 3105 3111 3199 3101 3137 3201 3202 3136 3162 3200 3115 3105 3111 3203 3163 3137 3143 3206 3205 3204 3053 3181 3138 3083 3184 3207 3140 3123 3182 3164 3111 3053 3151 3138 3142 3152 3166 3165 3140 3208 3130 3032 3151 3111 3131 3154 3186 3167 3113 3166 3115 3130 3209 3111 3144 3211 3212 3143 3167 3210 3156 3115 3130 3213 3168 3144 3157 3216 3215 3214 3079 3169 3173 3075 3172 3217 3176 3121 3170 3174 3089 3075 3173 3124 3147 3174 3175 3150 3146 3218 3177 3079 3173 3089 3179 3176 3219 3178 3122 3175 3093 3177 3187 3089 3180 3220 3190 3129 3178 3188 3151 3053 3124 3181 3152 3126 3185 3221 3184 3183 3089 3222 3151 3124 3225 3224 3153 3150 3223 3185 3130 3089 3187 3151 3155 3188 3189 3186 3153 3226 3191 3093 3187 3130 3193 3190 3227 3192 3132 3189 3156 3191 3228 3130 3194 3230 3231 3157 3192 3229 3105 3199 3195 3101 3202 3232 3198 3136 3200 3196 3111 3101 3138 3199 3162 3161 3165 3201 3200 3233 3203 3105 3111 3199 3205 3137 3204 3234 3202 3201 3115 3209 3203 3111 3212 3235 3206 3143 3210 3204 3151 3053 3181 3138 3152 3184 3221 3208 3140 3207 3111 3151 3236 3138 3166 3238 3239 3165 3208 3237 3130 3111 3151 3209 3167 3166 3186 3211 3210 3240 3213 3115 3130 3209 3215 3144 3214 3241 3212 3211 3156 3228 3213 3130 3231 3242 3216 3157 3229 3214 3177 3079 3169 3173 3179 3172 3243 3219 3176 3217 3089 3173 3222 3124 3175 3244 3225 3150 3218 3223 3177 3089 3173 3187 3178 3175 3219 3220 3188 3245 3191 3093 3177 3187 3193 3180 3246 3227 3190 3220 3151 3124 3222 3181 3185 3223 3224 3221 3183 3247 3187 3089 3222 3151 3188 3225 3248 3226 3153 3224 3130 3187 3249 3151 3189 3251 3252 3186 3226 3250 3191 3130 3187 3228 3192 3189 3227 3230 3229 3253 3254 3156 3191 3228 3257 3194 3256 3255 3231 3230 3203 3105 3199 3195 3205 3202 3234 3258 3198 3232 3111 3236 3199 3138 3239 3259 3201 3165 3237 3233 3203 3111 3209 3199 3204 3210 3235 3234 3201 3260 3213 3115 3209 3203 3215 3212 3241 3261 3206 3235 3151 3138 3181 3236 3208 3207 3221 3238 3237 3262 3209 3111 3151 3236 3210 3166 3240 3263 3239 3238 3130 3249 3209 3151 3252 3264 3211 3186 3250 3240 3213 3130 3228 3209 3214 3229 3242 3241 3211 3265 3254 3156 3228 3213 3257 3231 3255 3266 3216 3242 3177 3169 3267 3173 3243 3269 3270 3219 3217 3268 3187 3089 3173 3222 3188 3175 3245 3248 3225 3244 3177 3271 3187 3173 3274 3273 3220 3219 3272 3245 3191 3177 3275 3187 3246 3277 3278 3227 3220 3276 3151 3222 3279 3181 3224 3281 3282 3221 3247 3280 3187 3151 3222 3249 3226 3224 3248 3251 3250 3283 3228 3130 3187 3249 3229 3189 3253 3284 3252 3251 3191 3285 3228 3187 3288 3287 3230 3227 3286 3253 3254 3191 3289 3228 3256 3291 3292 3255 3230 3290 3203 3195 3199 3293 3258 3232 3234 3296 3295 3294 3209 3111 3236 3199 3210 3239 3263 3260 3201 3259 3203 3209 3297 3199 3235 3299 3300 3234 3260 3298 3213 3203 3209 3301 3261 3235 3241 3304 3303 3302 3151 3279 3236 3181 3282 3305 3238 3221 3280 3262 3209 3151 3249 3236 3240 3250 3264 3263 3238 3306 3228 3130 3249 3209 3229 3252 3284 3265 3211 3264 3213 3228 3307 3209 3242 3309 3310 3241 3265 3308 3254 3213 3228 3311 3266 3242 3255 3314 3313 3312 3177 3267 3271 3173 3270 3315 3274 3219 3268 3272 3187 3173 3271 3222 3245 3272 3273 3248 3244 3316 3275 3177 3271 3187 3277 3274 3317 3276 3220 3273 3191 3275 3285 3187 3278 3318 3288 3227 3276 3286 3249 3151 3222 3279 3250 3224 3283 3319 3282 3281 3187 3320 3249 3222 3323 3322 3251 3248 3321 3283 3228 3187 3285 3249 3253 3286 3287 3284 3251 3324 3289 3191 3285 3228 3291 3288 3325 3290 3230 3287 3254 3289 3326 3228 3292 3328 3329 3255 3290 3327 3203 3297 3293 3199 3300 3330 3296 3234 3298 3294 3209 3199 3236 3297 3260 3259 3263 3299 3298 3331 3301 3203 3209 3297 3303 3235 3302 3332 3300 3299 3213 3307 3301 3209 3310 3333 3304 3241 3308 3302 3249 3151 3279 3236 3250 3282 3319 3306 3238 3305 3209 3249 3334 3236 3264 3336 3337 3263 3306 3335 3228 3209 3249 3307 3265 3264 3284 3309 3308 3338 3311 3213 3228 3307 3313 3242 3312 3339 3310 3309 3254 3326 3311 3228 3329 3340 3314 3255 3327 3312 3275 3177 3267 3271 3277 3270 3341 3317 3274 3315 3187 3271 3320 3222 3273 3342 3323 3248 3316 3321 3275 3187 3271 3285 3276 3273 3317 3318 3286 3343 3289 3191 3275 3285 3291 3278 3344 3325 3288 3318 3249 3222 3320 3279 3283 3321 3322 3319 3281 3345 3285 3187 3320 3249 3286 3323 3346 3324 3251 3322 3228 3285 3347 3249 3287 3349 3350 3284 3324 3348 3289 3228 3285 3326 3290 3287 3325 3328 3327 3351 3352 3254 3289 3326 3355 3292 3354 3353 3329 3328 3301 3203 3297 3293 3303 3300 3332 3356 3296 3330 3209 3334 3297 3236 3337 3357 3299 3263 3335 3331 3301 3209 3307 3297 3302 3308 3333 3332 3299 3358 3311 3213 3307 3301 3313 3310 3339 3359 3304 3333 3249 3236 3279 3334 3306 3305 3319 3336 3335 3360 3307 3209 3249 3334 3308 3264 3338 3361 3337 3336 3228 3347 3307 3249 3350 3362 3309 3284 3348 3338 3311 3228 3326 3307 3312 3327 3340 3339 3309 3363 3352 3254 3326 3311 3355 3329 3353 3364 3314 3340 3275 3267 3365 3271 3341 3367 3368 3317 3315 3366 3285 3187 3271 3320 3286 3273 3343 3346 3323 3342 3275 3369 3285 3271 3372 3371 3318 3317 3370 3343 3289 3275 3373 3285 3344 3375 3376 3325 3318 3374 3249 3320 3377 3279 3322 3379 3380 3319 3345 3378 3285 3249 3320 3347 3324 3322 3346 3349 3348 3381 3326 3228 3285 3347 3327 3287 3351 3382 3350 3349 3289 3383 3326 3285 3386 3385 3328 3325 3384 3351 3352 3289 3387 3326 3354 3389 3390 3353 3328 3388 3301 3293 3297 3391 3356 3330 3332 3394 3393 3392 3307 3209 3334 3297 3308 3337 3361 3358 3299 3357 3301 3307 3395 3297 3333 3397 3398 3332 3358 3396 3311 3301 3307 3399 3359 3333 3339 3402 3401 3400 3249 3377 3334 3279 3380 3403 3336 3319 3378 3360 3307 3249 3347 3334 3338 3348 3362 3361 3336 3404 3326 3228 3347 3307 3327 3350 3382 3363 3309 3362 3311 3326 3405 3307 3340 3407 3408 3339 3363 3406 3352 3311 3326 3409 3364 3340 3353 3412 3411 3410 3275 3365 3369 3271 3368 3413 3372 3317 3366 3370 3285 3271 3369 3320 3343 3370 3371 3346 3342 3414 3373 3275 3369 3285 3375 3372 3415 3374 3318 3371 3289 3373 3383 3285 3376 3416 3386 3325 3374 3384 3347 3249 3320 3377 3348 3322 3381 3417 3380 3379 3285 3418 3347 3320 3421 3420 3349 3346 3419 3381 3326 3285 3383 3347 3351 3384 3385 3382 3349 3422 3387 3289 3383 3326 3389 3386 3423 3388 3328 3385 3352 3387 3424 3326 3390 3426 3427 3353 3388 3425 3301 3395 3391 3297 3398 3428 3394 3332 3396 3392 3307 3297 3334 3395 3358 3357 3361 3397 3396 3429 3399 3301 3307 3395 3401 3333 3400 3430 3398 3397 3311 3405 3399 3307 3408 3431 3402 3339 3406 3400 3347 3249 3377 3334 3348 3380 3417 3404 3336 3403 3307 3347 3432 3334 3362 3434 3435 3361 3404 3433 3326 3307 3347 3405 3363 3362 3382 3407 3406 3436 3409 3311 3326 3405 3411 3340 3410 3437 3408 3407 3352 3424 3409 3326 3427 3438 3412 3353 3425 3410 3373 3275 3365 3369 3375 3368 3439 3415 3372 3413 3285 3369 3418 3320 3371 3440 3421 3346 3414 3419 3373 3285 3369 3383 3374 3371 3415 3416 3384 3441 3387 3289 3373 3383 3389 3376 3442 3423 3386 3416 3347 3320 3418 3377 3381 3419 3420 3417 3379 3443 3383 3285 3418 3347 3384 3421 3444 3422 3349 3420 3326 3383 3445 3347 3385 3447 3448 3382 3422 3446 3387 3326 3383 3424 3388 3385 3423 3426 3425 3449 3450 3352 3387 3424 3453 3390 3452 3451 3427 3426 3399 3301 3395 3391 3401 3398 3430 3454 3394 3428 3307 3432 3395 3334 3435 3455 3397 3361 3433 3429 3399 3307 3405 3395 3400 3406 3431 3430 3397 3456 3409 3311 3405 3399 3411 3408 3437 3457 3402 3431 3347 3334 3377 3432 3404 3403 3417 3434 3433 3458 3405 3307 3347 3432 3406 3362 3436 3459 3435 3434 3326 3445 3405 3347 3448 3460 3407 3382 3446 3436 3409 3326 3424 3405 3410 3425 3438 3437 3407 3461 3450 3352 3424 3409 3453 3427 3451 3462 3412 3438 3373 3365 3463 3369 3439 3465 3466 3415 3413 3464 3383 3285 3369 3418 3384 3371 3441 3444 3421 3440 3373 3467 3383 3369 3470 3469 3416 3415 3468 3441 3387 3373 3471 3383 3442 3473 3474 3423 3416 3472 3347 3418 3475 3377 3420 3477 3478 3417 3443 3476 3383 3347 3418 3445 3422 3420 3444 3447 3446 3479 3424 3326 3383 3445 3425 3385 3449 3480 3448 3447 3387 3481 3424 3383 3484 3483 3426 3423 3482 3449 3450 3387 3485 3424 3452 3487 3488 3451 3426 3486 3399 3391 3395 3489 3454 3428 3430 3492 3491 3490 3405 3307 3432 3395 3406 3435 3459 3456 3397 3455 3399 3405 3493 3395 3431 3495 3496 3430 3456 3494 3409 3399 3405 3497 3457 3431 3437 3500 3499 3498 3347 3475 3432 3377 3478 3501 3434 3417 3476 3458 3405 3347 3445 3432 3436 3446 3460 3459 3434 3502 3424 3326 3445 3405 3425 3448 3480 3461 3407 3460 3409 3424 3503 3405 3438 3505 3506 3437 3461 3504 3450 3409 3424 3507 3462 3438 3451 3510 3509 3508 3373 3463 3467 3369 3466 3511 3470 3415 3464 3468 3383 3369 3467 3418 3441 3468 3469 3444 3440 3512 3471 3373 3467 3383 3473 3470 3513 3472 3416 3469 3387 3471 3481 3383 3474 3514 3484 3423 3472 3482 3445 3347 3418 3475 3446 3420 3479 3515 3478 3477 3383 3516 3445 3418 3519 3518 3447 3444 3517 3479 3424 3383 3481 3445 3449 3482 3483 3480 3447 3520 3485 3387 3481 3424 3487 3484 3521 3486 3426 3483 3450 3485 3522 3424 3488 3524 3525 3451 3486 3523 3399 3493 3489 3395 3496 3526 3492 3430 3494 3490 3405 3395 3432 3493 3456 3455 3459 3495 3494 3527 3497 3399 3405 3493 3499 3431 3498 3528 3496 3495 3409 3503 3497 3405 3506 3529 3500 3437 3504 3498 3445 3347 3475 3432 3446 3478 3515 3502 3434 3501 3405 3445 3530 3432 3460 3532 3533 3459 3502 3531 3424 3405 3445 3503 3461 3460 3480 3505 3504 3534 3507 3409 3424 3503 3509 3438 3508 3535 3506 3505 3450 3522 3507 3424 3525 3536 3510 3451 3523 3508 3471 3373 3463 3467 3473 3466 3537 3513 3470 3511 3383 3467 3516 3418 3469 3538 3519 3444 3512 3517 3471 3383 3467 3481 3472 3469 3513 3514 3482 3539 3485 3387 3471 3481 3487 3474 3540 3521 3484 3514 3445 3418 3516 3475 3479 3517 3518 3515 3477 3541 3481 3383 3516 3445 3482 3519 3542 3520 3447 3518 3424 3481 3543 3445 3483 3545 3546 3480 3520 3544 3485 3424 3481 3522 3486 3483 3521 3524 3523 3547 3548 3450 3485 3522 3551 3488 3550 3549 3525 3524 3497 3399 3493 3489 3499 3496 3528 3552 3492 3526 3405 3530 3493 3432 3533 3553 3495 3459 3531 3527 3497 3405 3503 3493 3498 3504 3529 3528 3495 3554 3507 3409 3503 3497 3509 3506 3535 3555 3500 3529 3445 3432 3475 3530 3502 3501 3515 3532 3531 3556 3503 3405 3445 3530 3504 3460 3534 3557 3533 3532 3424 3543 3503 3445 3546 3558 3505 3480 3544 3534 3507 3424 3522 3503 3508 3523 3536 3535 3505 3559 3548 3450 3522 3507 3551 3525 3549 3560 3510 3536 3471 3463 3561 3467 3537 3563 3564 3513 3511 3562 3481 3383 3467 3516 3482 3469 3539 3542 3519 3538 3471 3565 3481 3467 3568 3567 3514 3513 3566 3539 3485 3471 3569 3481 3540 3571 3572 3521 3514 3570 3445 3516 3573 3475 3518 3575 3576 3515 3541 3574 3481 3445 3516 3543 3520 3518 3542 3545 3544 3577 3522 3424 3481 3543 3523 3483 3547 3578 3546 3545 3485 3579 3522 3481 3582 3581 3524 3521 3580 3547 3548 3485 3583 3522 3550 3585 3586 3549 3524 3584 3497 3489 3493 3587 3552 3526 3528 3590 3589 3588 3503 3405 3530 3493 3504 3533 3557 3554 3495 3553 3497 3503 3591 3493 3529 3593 3594 3528 3554 3592 3507 3497 3503 3595 3555 3529 3535 3598 3597 3596 3445 3573 3530 3475 3576 3599 3532 3515 3574 3556 3503 3445 3543 3530 3534 3544 3558 3557 3532 3600 3522 3424 3543 3503 3523 3546 3578 3559 3505 3558 3507 3522 3601 3503 3536 3603 3604 3535 3559 3602 3548 3507 3522 3605 3560 3536 3549 3608 3607 3606 3471 3561 3565 3467 3564 3609 3568 3513 3562 3566 3481 3467 3565 3516 3539 3566 3567 3542 3538 3610 3569 3471 3565 3481 3571 3568 3611 3570 3514 3567 3485 3569 3579 3481 3572 3612 3582 3521 3570 3580 3543 3445 3516 3573 3544 3518 3577 3613 3576 3575 3481 3614 3543 3516 3617 3616 3545 3542 3615 3577 3522 3481 3579 3543 3547 3580 3581 3578 3545 3618 3583 3485 3579 3522 3585 3582 3619 3584 3524 3581 3548 3583 3620 3522 3586 3622 3623 3549 3584 3621 3497 3591 3587 3493 3594 3624 3590 3528 3592 3588 3503 3493 3530 3591 3554 3553 3557 3593 3592 3625 3595 3497 3503 3591 3597 3529 3596 3626 3594 3593 3507 3601 3595 3503 3604 3627 3598 3535 3602 3596 3543 3445 3573 3530 3544 3576 3613 3600 3532 3599 3503 3543 3628 3530 3558 3630 3631 3557 3600 3629 3522 3503 3543 3601 3559 3558 3578 3603 3602 3632 3605 3507 3522 3601 3607 3536 3606 3633 3604 3603 3548 3620 3605 3522 3623 3634 3608 3549 3621 3606 3569 3471 3561 3565 3571 3564 3635 3611 3568 3609 3481 3565 3614 3516 3567 3636 3617 3542 3610 3615 3569 3481 3565 3579 3570 3567 3611 3612 3580 3637 3583 3485 3569 3579 3585 3572 3638 3619 3582 3612 3543 3516 3614 3573 3577 3615 3616 3613 3575 3639 3579 3481 3614 3543 3580 3617 3640 3618 3545 3616 3522 3579 3641 3543 3581 3643 3644 3578 3618 3642 3583 3522 3579 3620 3584 3581 3619 3622 3621 3645 3646 3548 3583 3620 3649 3586 3648 3647 3623 3622 3595 3497 3591 3587 3597 3594 3626 3650 3590 3624 3503 3628 3591 3530 3631 3651 3593 3557 3629 3625 3595 3503 3601 3591 3596 3602 3627 3626 3593 3652 3605 3507 3601 3595 3607 3604 3633 3653 3598 3627 3543 3530 3573 3628 3600 3599 3613 3630 3629 3654 3601 3503 3543 3628 3602 3558 3632 3655 3631 3630 3522 3641 3601 3543 3644 3656 3603 3578 3642 3632 3605 3522 3620 3601 3606 3621 3634 3633 3603 3657 3646 3548 3620 3605 3649 3623 3647 3658 3608 3634 3569 3561 3659 3565 3635 3661 3662 3611 3609 3660 3579 3481 3565 3614 3580 3567 3637 3640 3617 3636 3569 3663 3579 3565 3666 3665 3612 3611 3664 3637 3583 3569 3667 3579 3638 3669 3670 3619 3612 3668 3543 3614 3671 3573 3616 3673 3674 3613 3639 3672 3579 3543 3614 3641 3618 3616 3640 3643 3642 3675 3620 3522 3579 3641 3621 3581 3645 3676 3644 3643 3583 3677 3620 3579 3680 3679 3622 3619 3678 3645 3646 3583 3681 3620 3648 3683 3684 3647 3622 3682 3595 3587 3591 3685 3650 3624 3626 3688 3687 3686 3601 3503 3628 3591 3602 3631 3655 3652 3593 3651 3595 3601 3689 3591 3627 3691 3692 3626 3652 3690 3605 3595 3601 3693 3653 3627 3633 3696 3695 3694 3543 3671 3628 3573 3674 3697 3630 3613 3672 3654 3601 3543 3641 3628 3632 3642 3656 3655 3630 3698 3620 3522 3641 3601 3621 3644 3676 3657 3603 3656 3605 3620 3699 3601 3634 3701 3702 3633 3657 3700 3646 3605 3620 3703 3658 3634 3647 3706 3705 3704 3569 3659 3663 3565 3662 3707 3666 3611 3660 3664 3579 3565 3663 3614 3637 3664 3665 3640 3636 3708 3667 3569 3663 3579 3669 3666 3709 3668 3612 3665 3583 3667 3677 3579 3670 3710 3680 3619 3668 3678 3641 3543 3614 3671 3642 3616 3675 3711 3674 3673 3579 3712 3641 3614 3715 3714 3643 3640 3713 3675 3620 3579 3677 3641 3645 3678 3679 3676 3643 3716 3681 3583 3677 3620 3683 3680 3717 3682 3622 3679 3646 3681 3718 3620 3684 3720 3721 3647 3682 3719 3595 3689 3685 3591 3692 3722 3688 3626 3690 3686 3601 3591 3628 3689 3652 3651 3655 3691 3690 3723 3693 3595 3601 3689 3695 3627 3694 3724 3692 3691 3605 3699 3693 3601 3702 3725 3696 3633 3700 3694 3641 3543 3671 3628 3642 3674 3711 3698 3630 3697 3601 3641 3726 3628 3656 3728 3729 3655 3698 3727 3620 3601 3641 3699 3657 3656 3676 3701 3700 3730 3703 3605 3620 3699 3705 3634 3704 3731 3702 3701 3646 3718 3703 3620 3721 3732 3706 3647 3719 3704 3667 3569 3659 3663 3669 3662 3733 3709 3666 3707 3579 3663 3712 3614 3665 3734 3715 3640 3708 3713 3667 3579 3663 3677 3668 3665 3709 3710 3678 3735 3681 3583 3667 3677 3683 3670 3736 3717 3680 3710 3641 3614 3712 3671 3675 3713 3714 3711 3673 3737 3677 3579 3712 3641 3678 3715 3738 3716 3643 3714 3620 3677 3739 3641 3679 3741 3742 3676 3716 3740 3681 3620 3677 3718 3682 3679 3717 3720 3719 3743 3744 3646 3681 3718 3747 3684 3746 3745 3721 3720 3693 3595 3689 3685 3695 3692 3724 3748 3688 3722 3601 3726 3689 3628 3729 3749 3691 3655 3727 3723 3693 3601 3699 3689 3694 3700 3725 3724 3691 3750 3703 3605 3699 3693 3705 3702 3731 3751 3696 3725 3641 3628 3671 3726 3698 3697 3711 3728 3727 3752 3699 3601 3641 3726 3700 3656 3730 3753 3729 3728 3620 3739 3699 3641 3742 3754 3701 3676 3740 3730 3703 3620 3718 3699 3704 3719 3732 3731 3701 3755 3744 3646 3718 3703 3747 3721 3745 3756 3706 3732 3667 3659 3757 3663 3733 3759 3760 3709 3707 3758 3677 3579 3663 3712 3678 3665 3735 3738 3715 3734 3667 3761 3677 3663 3764 3763 3710 3709 3762 3735 3681 3667 3765 3677 3736 3767 3768 3717 3710 3766 3641 3712 3769 3671 3714 3771 3772 3711 3737 3770 3677 3641 3712 3739 3716 3714 3738 3741 3740 3773 3718 3620 3677 3739 3719 3679 3743 3774 3742 3741 3681 3775 3718 3677 3778 3777 3720 3717 3776 3743 3744 3681 3779 3718 3746 3781 3782 3745 3720 3780 3693 3685 3689 3783 3748 3722 3724 3786 3785 3784 3699 3601 3726 3689 3700 3729 3753 3750 3691 3749 3693 3699 3787 3689 3725 3789 3790 3724 3750 3788 3703 3693 3699 3791 3751 3725 3731 3794 3793 3792 3641 3769 3726 3671 3772 3795 3728 3711 3770 3752 3699 3641 3739 3726 3730 3740 3754 3753 3728 3796 3718 3620 3739 3699 3719 3742 3774 3755 3701 3754 3703 3718 3797 3699 3732 3799 3800 3731 3755 3798 3744 3703 3718 3801 3756 3732 3745 3804 3803 3802 3667 3757 3761 3663 3760 3805 3764 3709 3758 3762 3677 3663 3761 3712 3735 3762 3763 3738 3734 3806 3765 3667 3761 3677 3767 3764 3807 3766 3710 3763 3681 3765 3775 3677 3768 3808 3778 3717 3766 3776 3739 3641 3712 3769 3740 3714 3773 3809 3772 3771 3677 3810 3739 3712 3813 3812 3741 3738 3811 3773 3718 3677 3775 3739 3743 3776 3777 3774 3741 3814 3779 3681 3775 3718 3781 3778 3815 3780 3720 3777 3744 3779 3816 3718 3782 3818 3819 3745 3780 3817 3693 3787 3783 3689 3790 3820 3786 3724 3788 3784 3699 3689 3726 3787 3750 3749 3753 3789 3788 3821 3791 3693 3699 3787 3793 3725 3792 3822 3790 3789 3703 3797 3791 3699 3800 3823 3794 3731 3798 3792 3739 3641 3769 3726 3740 3772 3809 3796 3728 3795 3699 3739 3824 3726 3754 3826 3827 3753 3796 3825 3718 3699 3739 3797 3755 3754 3774 3799 3798 3828 3801 3703 3718 3797 3803 3732 3802 3829 3800 3799 3744 3816 3801 3718 3819 3830 3804 3745 3817 3802 3765 3667 3757 3761 3767 3760 3831 3807 3764 3805 3677 3761 3810 3712 3763 3832 3813 3738 3806 3811 3765 3677 3761 3775 3766 3763 3807 3808 3776 3833 3779 3681 3765 3775 3781 3768 3834 3815 3778 3808 3739 3712 3810 3769 3773 3811 3812 3809 3771 3835 3775 3677 3810 3739 3776 3813 3836 3814 3741 3812 3718 3775 3837 3739 3777 3839 3840 3774 3814 3838 3779 3718 3775 3816 3780 3777 3815 3818 3817 3841 3842 3744 3779 3816 3845 3782 3844 3843 3819 3818 3791 3693 3787 3783 3793 3790 3822 3846 3786 3820 3699 3824 3787 3726 3827 3847 3789 3753 3825 3821 3791 3699 3797 3787 3792 3798 3823 3822 3789 3848 3801 3703 3797 3791 3803 3800 3829 3849 3794 3823 3739 3726 3769 3824 3796 3795 3809 3826 3825 3850 3797 3699 3739 3824 3798 3754 3828 3851 3827 3826 3718 3837 3797 3739 3840 3852 3799 3774 3838 3828 3801 3718 3816 3797 3802 3817 3830 3829 3799 3853 3842 3744 3816 3801 3845 3819 3843 3854 3804 3830 3765 3757 3855 3761 3831 3857 3858 3807 3805 3856 3775 3677 3761 3810 3776 3763 3833 3836 3813 3832 3765 3859 3775 3761 3862 3861 3808 3807 3860 3833 3779 3765 3863 3775 3834 3865 3866 3815 3808 3864 3739 3810 3867 3769 3812 3869 3870 3809 3835 3868 3775 3739 3810 3837 3814 3812 3836 3839 3838 3871 3816 3718 3775 3837 3817 3777 3841 3872 3840 3839 3779 3873 3816 3775 3876 3875 3818 3815 3874 3841 3842 3779 3877 3816 3844 3879 3880 3843 3818 3878 3791 3783 3787 3881 3846 3820 3822 3884 3883 3882 3797 3699 3824 3787 3798 3827 3851 3848 3789 3847 3791 3797 3885 3787 3823 3887 3888 3822 3848 3886 3801 3791 3797 3889 3849 3823 3829 3892 3891 3890 3739 3867 3824 3769 3870 3893 3826 3809 3868 3850 3797 3739 3837 3824 3828 3838 3852 3851 3826 3894 3816 3718 3837 3797 3817 3840 3872 3853 3799 3852 3801 3816 3895 3797 3830 3897 3898 3829 3853 3896 3842 3801 3816 3899 3854 3830 3843 3902 3901 3900 3765 3855 3859 3761 3858 3903 3862 3807 3856 3860 3775 3761 3859 3810 3833 3860 3861 3836 3832 3904 3863 3765 3859 3775 3865 3862 3905 3864 3808 3861 3779 3863 3873 3775 3866 3906 3876 3815 3864 3874 3837 3739 3810 3867 3838 3812 3871 3907 3870 3869 3775 3908 3837 3810 3911 3910 3839 3836 3909 3871 3816 3775 3873 3837 3841 3874 3875 3872 3839 3912 3877 3779 3873 3816 3879 3876 3913 3878 3818 3875 3842 3877 3914 3816 3880 3916 3917 3843 3878 3915 3791 3885 3881 3787 3888 3918 3884 3822 3886 3882 3797 3787 3824 3885 3848 3847 3851 3887 3886 3919 3889 3791 3797 3885 3891 3823 3890 3920 3888 3887 3801 3895 3889 3797 3898 3921 3892 3829 3896 3890 3837 3739 3867 3824 3838 3870 3907 3894 3826 3893 3797 3837 3922 3824 3852 3924 3925 3851 3894 3923 3816 3797 3837 3895 3853 3852 3872 3897 3896 3926 3899 3801 3816 3895 3901 3830 3900 3927 3898 3897 3842 3914 3899 3816 3917 3928 3902 3843 3915 3900 3863 3765 3855 3859 3865 3858 3929 3905 3862 3903 3775 3859 3908 3810 3861 3930 3911 3836 3904 3909 3863 3775 3859 3873 3864 3861 3905 3906 3874 3931 3877 3779 3863 3873 3879 3866 3932 3913 3876 3906 3837 3810 3908 3867 3871 3909 3910 3907 3869 3933 3873 3775 3908 3837 3874 3911 3934 3912 3839 3910 3816 3873 3935 3837 3875 3937 3938 3872 3912 3936 3877 3816 3873 3914 3878 3875 3913 3916 3915 3939 3940 3842 3877 3914 3943 3880 3942 3941 3917 3916 3889 3791 3885 3881 3891 3888 3920 3944 3884 3918 3797 3922 3885 3824 3925 3945 3887 3851 3923 3919 3889 3797 3895 3885 3890 3896 3921 3920 3887 3946 3899 3801 3895 3889 3901 3898 3927 3947 3892 3921 3837 3824 3867 3922 3894 3893 3907 3924 3923 3948 3895 3797 3837 3922 3896 3852 3926 3949 3925 3924 3816 3935 3895 3837 3938 3950 3897 3872 3936 3926 3899 3816 3914 3895 3900 3915 3928 3927 3897 3951 3940 3842 3914 3899 3943 3917 3941 3952 3902 3928 3863 3855 3953 3859 3929 3955 3956 3905 3903 3954 3873 3775 3859 3908 3874 3861 3931 3934 3911 3930 3863 3957 3873 3859 3960 3959 3906 3905 3958 3931 3877 3863 3961 3873 3932 3963 3964 3913 3906 3962 3837 3908 3965 3867 3910 3967 3968 3907 3933 3966 3873 3837 3908 3935 3912 3910 3934 3937 3936 3969 3914 3816 3873 3935 3915 3875 3939 3970 3938 3937 3877 3971 3914 3873 3974 3973 3916 3913 3972 3939 3940 3877 3975 3914 3942 3977 3978 3941 3916 3976 3889 3881 3885 3979 3944 3918 3920 3982 3981 3980 3895 3797 3922 3885 3896 3925 3949 3946 3887 3945 3889 3895 3983 3885 3921 3985 3986 3920 3946 3984 3899 3889 3895 3987 3947 3921 3927 3990 3989 3988 3837 3965 3922 3867 3968 3991 3924 3907 3966 3948 3895 3837 3935 3922 3926 3936 3950 3949 3924 3992 3914 3816 3935 3895 3915 3938 3970 3951 3897 3950 3899 3914 3993 3895 3928 3995 3996 3927 3951 3994 3940 3899 3914 3997 3952 3928 3941 4000 3999 3998 3863 3953 3957 3859 3956 4001 3960 3905 3954 3958 3873 3859 3957 3908 3931 3958 3959 3934 3930 4002 3961 3863 3957 3873 3963 3960 4003 3962 3906 3959 3877 3961 3971 3873 3964 4004 3974 3913 3962 3972 3935 3837 3908 3965 3936 3910 3969 4005 3968 3967 3873 4006 3935 3908 4009 4008 3937 3934 4007 3969 3914 3873 3971 3935 3939 3972 3973 3970 3937 4010 3975 3877 3971 3914 3977 3974 4011 3976 3916 3973 3940 3975 4012 3914 3978 4014 4015 3941 3976 4013 3889 3983 3979 3885 3986 4016 3982 3920 3984 3980 3895 3885 3922 3983 3946 3945 3949 3985 3984 4017 3987 3889 3895 3983 3989 3921 3988 4018 3986 3985 3899 3993 3987 3895 3996 4019 3990 3927 3994 3988 3935 3837 3965 3922 3936 3968 4005 3992 3924 3991 3895 3935 4020 3922 3950 4022 4023 3949 3992 4021 3914 3895 3935 3993 3951 3950 3970 3995 3994 4024 3997 3899 3914 3993 3999 3928 3998 4025 3996 3995 3940 4012 3997 3914 4015 4026 4000 3941 4013 3998 3961 3863 3953 3957 3963 3956 4027 4003 3960 4001 3873 3957 4006 3908 3959 4028 4009 3934 4002 4007 3961 3873 3957 3971 3962 3959 4003 4004 3972 4029 3975 3877 3961 3971 3977 3964 4030 4011 3974 4004 3935 3908 4006 3965 3969 4007 4008 4005 3967 4031 3971 3873 4006 3935 3972 4009 4032 4010 3937 4008 3914 3971 4033 3935 3973 4035 4036 3970 4010 4034 3975 3914 3971 4012 3976 3973 4011 4014 4013 4037 4038 3940 3975 4012 4041 3978 4040 4039 4015 4014 3987 3889 3983 3979 3989 3986 4018 4042 3982 4016 3895 4020 3983 3922 4023 4043 3985 3949 4021 4017 3987 3895 3993 3983 3988 3994 4019 4018 3985 4044 3997 3899 3993 3987 3999 3996 4025 4045 3990 4019 3935 3922 3965 4020 3992 3991 4005 4022 4021 4046 3993 3895 3935 4020 3994 3950 4024 4047 4023 4022 3914 4033 3993 3935 4036 4048 3995 3970 4034 4024 3997 3914 4012 3993 3998 4013 4026 4025 3995 4049 4038 3940 4012 3997 4041 4015 4039 4050 4000 4026 3961 3953 4051 3957 4027 4053 4054 4003 4001 4052 3971 3873 3957 4006 3972 3959 4029 4032 4009 4028 3961 4055 3971 3957 4058 4057 4004 4003 4056 4029 3975 3961 4059 3971 4030 4061 4062 4011 4004 4060 3935 4006 4063 3965 4008 4065 4066 4005 4031 4064 3971 3935 4006 4033 4010 4008 4032 4035 4034 4067 4012 3914 3971 4033 4013 3973 4037 4068 4036 4035 3975 4069 4012 3971 4072 4071 4014 4011 4070 4037 4038 3975 4073 4012 4040 4075 4076 4039 4014 4074 3987 3979 3983 4077 4042 4016 4018 4080 4079 4078 3993 3895 4020 3983 3994 4023 4047 4044 3985 4043 3987 3993 4081 3983 4019 4083 4084 4018 4044 4082 3997 3987 3993 4085 4045 4019 4025 4088 4087 4086 3935 4063 4020 3965 4066 4089 4022 4005 4064 4046 3993 3935 4033 4020 4024 4034 4048 4047 4022 4090 4012 3914 4033 3993 4013 4036 4068 4049 3995 4048 3997 4012 4091 3993 4026 4093 4094 4025 4049 4092 4038 3997 4012 4095 4050 4026 4039 4098 4097 4096 3961 4051 4055 3957 4054 4099 4058 4003 4052 4056 3971 3957 4055 4006 4029 4056 4057 4032 4028 4100 4059 3961 4055 3971 4061 4058 4101 4060 4004 4057 3975 4059 4069 3971 4062 4102 4072 4011 4060 4070 4033 3935 4006 4063 4034 4008 4067 4103 4066 4065 3971 4104 4033 4006 4107 4106 4035 4032 4105 4067 4012 3971 4069 4033 4037 4070 4071 4068 4035 4108 4073 3975 4069 4012 4075 4072 4109 4074 4014 4071 4038 4073 4110 4012 4076 4112 4113 4039 4074 4111 3987 4081 4077 3983 4084 4114 4080 4018 4082 4078 3993 3983 4020 4081 4044 4043 4047 4083 4082 4115 4085 3987 3993 4081 4087 4019 4086 4116 4084 4083 3997 4091 4085 3993 4094 4117 4088 4025 4092 4086 4033 3935 4063 4020 4034 4066 4103 4090 4022 4089 3993 4033 4118 4020 4048 4120 4121 4047 4090 4119 4012 3993 4033 4091 4049 4048 4068 4093 4092 4122 4095 3997 4012 4091 4097 4026 4096 4123 4094 4093 4038 4110 4095 4012 4113 4124 4098 4039 4111 4096 4059 3961 4051 4055 4061 4054 4125 4101 4058 4099 3971 4055 4104 4006 4057 4126 4107 4032 4100 4105 4059 3971 4055 4069 4060 4057 4101 4102 4070 4127 4073 3975 4059 4069 4075 4062 4128 4109 4072 4102 4033 4006 4104 4063 4067 4105 4106 4103 4065 4129 4069 3971 4104 4033 4070 4107 4130 4108 4035 4106 4012 4069 4131 4033 4071 4133 4134 4068 4108 4132 4073 4012 4069 4110 4074 4071 4109 4112 4111 4135 4136 4038 4073 4110 4139 4076 4138 4137 4113 4112 4085 3987 4081 4077 4087 4084 4116 4140 4080 4114 3993 4118 4081 4020 4121 4141 4083 4047 4119 4115 4085 3993 4091 4081 4086 4092 4117 4116 4083 4142 4095 3997 4091 4085 4097 4094 4123 4143 4088 4117 4033 4020 4063 4118 4090 4089 4103 4120 4119 4144 4091 3993 4033 4118 4092 4048 4122 4145 4121 4120 4012 4131 4091 4033 4134 4146 4093 4068 4132 4122 4095 4012 4110 4091 4096 4111 4124 4123 4093 4147 4136 4038 4110 4095 4139 4113 4137 4148 4098 4124 4059 4051 4149 4055 4125 4151 4152 4101 4099 4150 4069 3971 4055 4104 4070 4057 4127 4130 4107 4126 4059 4153 4069 4055 4156 4155 4102 4101 4154 4127 4073 4059 4157 4069 4128 4159 4160 4109 4102 4158 4033 4104 4161 4063 4106 4163 4164 4103 4129 4162 4069 4033 4104 4131 4108 4106 4130 4133 4132 4165 4110 4012 4069 4131 4111 4071 4135 4166 4134 4133 4073 4167 4110 4069 4170 4169 4112 4109 4168 4135 4136 4073 4171 4110 4138 4173 4174 4137 4112 4172 4085 4077 4081 4175 4140 4114 4116 4178 4177 4176 4091 3993 4118 4081 4092 4121 4145 4142 4083 4141 4085 4091 4179 4081 4117 4181 4182 4116 4142 4180 4095 4085 4091 4183 4143 4117 4123 4186 4185 4184 4033 4161 4118 4063 4164 4187 4120 4103 4162 4144 4091 4033 4131 4118 4122 4132 4146 4145 4120 4188 4110 4012 4131 4091 4111 4134 4166 4147 4093 4146 4095 4110 4189 4091 4124 4191 4192 4123 4147 4190 4136 4095 4110 4193 4148 4124 4137 4196 4195 4194 4059 4149 4153 4055 4152 4197 4156 4101 4150 4154 4069 4055 4153 4104 4127 4154 4155 4130 4126 4198 4157 4059 4153 4069 4159 4156 4199 4158 4102 4155 4073 4157 4167 4069 4160 4200 4170 4109 4158 4168 4131 4033 4104 4161 4132 4106 4165 4201 4164 4163 4069 4202 4131 4104 4205 4204 4133 4130 4203 4165 4110 4069 4167 4131 4135 4168 4169 4166 4133 4206 4171 4073 4167 4110 4173 4170 4207 4172 4112 4169 4136 4171 4208 4110 4174 4210 4211 4137 4172 4209 4085 4179 4175 4081 4182 4212 4178 4116 4180 4176 4091 4081 4118 4179 4142 4141 4145 4181 4180 4213 4183 4085 4091 4179 4185 4117 4184 4214 4182 4181 4095 4189 4183 4091 4192 4215 4186 4123 4190 4184 4131 4033 4161 4118 4132 4164 4201 4188 4120 4187 4091 4131 4216 4118 4146 4218 4219 4145 4188 4217 4110 4091 4131 4189 4147 4146 4166 4191 4190 4220 4193 4095 4110 4189 4195 4124 4194 4221 4192 4191 4136 4208 4193 4110 4211 4222 4196 4137 4209 4194 4157 4059 4149 4153 4159 4152 4223 4199 4156 4197 4069 4153 4202 4104 4155 4224 4205 4130 4198 4203 4157 4069 4153 4167 4158 4155 4199 4200 4168 4225 4171 4073 4157 4167 4173 4160 4226 4207 4170 4200 4131 4104 4202 4161 4165 4203 4204 4201 4163 4227 4167 4069 4202 4131 4168 4205 4228 4206 4133 4204 4110 4167 4229 4131 4169 4231 4232 4166 4206 4230 4171 4110 4167 4208 4172 4169 4207 4210 4209 4233 4234 4136 4171 4208 4237 4174 4236 4235 4211 4210 4183 4085 4179 4175 4185 4182 4214 4238 4178 4212 4091 4216 4179 4118 4219 4239 4181 4145 4217 4213 4183 4091 4189 4179 4184 4190 4215 4214 4181 4240 4193 4095 4189 4183 4195 4192 4221 4241 4186 4215 4131 4118 4161 4216 4188 4187 4201 4218 4217 4242 4189 4091 4131 4216 4190 4146 4220 4243 4219 4218 4110 4229 4189 4131 4232 4244 4191 4166 4230 4220 4193 4110 4208 4189 4194 4209 4222 4221 4191 4245 4234 4136 4208 4193 4237 4211 4235 4246 4196 4222 4157 4149 4247 4153 4223 4249 4250 4199 4197 4248 4167 4069 4153 4202 4168 4155 4225 4228 4205 4224 4157 4251 4167 4153 4254 4253 4200 4199 4252 4225 4171 4157 4255 4167 4226 4257 4258 4207 4200 4256 4131 4202 4259 4161 4204 4261 4262 4201 4227 4260 4167 4131 4202 4229 4206 4204 4228 4231 4230 4263 4208 4110 4167 4229 4209 4169 4233 4264 4232 4231 4171 4265 4208 4167 4268 4267 4210 4207 4266 4233 4234 4171 4269 4208 4236 4271 4272 4235 4210 4270 4183 4175 4179 4273 4238 4212 4214 4276 4275 4274 4189 4091 4216 4179 4190 4219 4243 4240 4181 4239 4183 4189 4277 4179 4215 4279 4280 4214 4240 4278 4193 4183 4189 4281 4241 4215 4221 4284 4283 4282 4131 4259 4216 4161 4262 4285 4218 4201 4260 4242 4189 4131 4229 4216 4220 4230 4244 4243 4218 4286 4208 4110 4229 4189 4209 4232 4264 4245 4191 4244 4193 4208 4287 4189 4222 4289 4290 4221 4245 4288 4234 4193 4208 4291 4246 4222 4235 4294 4293 4292 4157 4247 4251 4153 4250 4295 4254 4199 4248 4252 4167 4153 4251 4202 4225 4252 4253 4228 4224 4296 4255 4157 4251 4167 4257 4254 4297 4256 4200 4253 4171 4255 4265 4167 4258 4298 4268 4207 4256 4266 4229 4131 4202 4259 4230 4204 4263 4299 4262 4261 4167 4300 4229 4202 4303 4302 4231 4228 4301 4263 4208 4167 4265 4229 4233 4266 4267 4264 4231 4304 4269 4171 4265 4208 4271 4268 4305 4270 4210 4267 4234 4269 4306 4208 4272 4308 4309 4235 4270 4307 4183 4277 4273 4179 4280 4310 4276 4214 4278 4274 4189 4179 4216 4277 4240 4239 4243 4279 4278 4311 4281 4183 4189 4277 4283 4215 4282 4312 4280 4279 4193 4287 4281 4189 4290 4313 4284 4221 4288 4282 4229 4131 4259 4216 4230 4262 4299 4286 4218 4285 4189 4229 4314 4216 4244 4316 4317 4243 4286 4315 4208 4189 4229 4287 4245 4244 4264 4289 4288 4318 4291 4193 4208 4287 4293 4222 4292 4319 4290 4289 4234 4306 4291 4208 4309 4320 4294 4235 4307 4292 4255 4157 4247 4251 4257 4250 4321 4297 4254 4295 4167 4251 4300 4202 4253 4322 4303 4228 4296 4301 4255 4167 4251 4265 4256 4253 4297 4298 4266 4323 4269 4171 4255 4265 4271 4258 4324 4305 4268 4298 4229 4202 4300 4259 4263 4301 4302 4299 4261 4325 4265 4167 4300 4229 4266 4303 4326 4304 4231 4302 4208 4265 4327 4229 4267 4329 4330 4264 4304 4328 4269 4208 4265 4306 4270 4267 4305 4308 4307 4331 4332 4234 4269 4306 4335 4272 4334 4333 4309 4308 4281 4183 4277 4273 4283 4280 4312 4336 4276 4310 4189 4314 4277 4216 4317 4337 4279 4243 4315 4311 4281 4189 4287 4277 4282 4288 4313 4312 4279 4338 4291 4193 4287 4281 4293 4290 4319 4339 4284 4313 4229 4216 4259 4314 4286 4285 4299 4316 4315 4340 4287 4189 4229 4314 4288 4244 4318 4341 4317 4316 4208 4327 4287 4229 4330 4342 4289 4264 4328 4318 4291 4208 4306 4287 4292 4307 4320 4319 4289 4343 4332 4234 4306 4291 4335 4309 4333 4344 4294 4320 4255 4247 4345 4251 4321 4347 4348 4297 4295 4346 4265 4167 4251 4300 4266 4253 4323 4326 4303 4322 4255 4349 4265 4251 4352 4351 4298 4297 4350 4323 4269 4255 4353 4265 4324 4355 4356 4305 4298 4354 4229 4300 4357 4259 4302 4359 4360 4299 4325 4358 4265 4229 4300 4327 4304 4302 4326 4329 4328 4361 4306 4208 4265 4327 4307 4267 4331 4362 4330 4329 4269 4363 4306 4265 4366 4365 4308 4305 4364 4331 4332 4269 4367 4306 4334 4369 4370 4333 4308 4368 4281 4273 4277 4371 4336 4310 4312 4374 4373 4372 4287 4189 4314 4277 4288 4317 4341 4338 4279 4337 4281 4287 4375 4277 4313 4377 4378 4312 4338 4376 4291 4281 4287 4379 4339 4313 4319 4382 4381 4380 4229 4357 4314 4259 4360 4383 4316 4299 4358 4340 4287 4229 4327 4314 4318 4328 4342 4341 4316 4384 4306 4208 4327 4287 4307 4330 4362 4343 4289 4342 4291 4306 4385 4287 4320 4387 4388 4319 4343 4386 4332 4291 4306 4389 4344 4320 4333 4392 4391 4390 4255 4345 4349 4251 4348 4393 4352 4297 4346 4350 4265 4251 4349 4300 4323 4350 4351 4326 4322 4394 4353 4255 4349 4265 4355 4352 4395 4354 4298 4351 4269 4353 4363 4265 4356 4396 4366 4305 4354 4364 4327 4229 4300 4357 4328 4302 4361 4397 4360 4359 4265 4398 4327 4300 4401 4400 4329 4326 4399 4361 4306 4265 4363 4327 4331 4364 4365 4362 4329 4402 4367 4269 4363 4306 4369 4366 4403 4368 4308 4365 4332 4367 4404 4306 4370 4406 4407 4333 4368 4405 4281 4375 4371 4277 4378 4408 4374 4312 4376 4372 4287 4277 4314 4375 4338 4337 4341 4377 4376 4409 4379 4281 4287 4375 4381 4313 4380 4410 4378 4377 4291 4385 4379 4287 4388 4411 4382 4319 4386 4380 4327 4229 4357 4314 4328 4360 4397 4384 4316 4383 4287 4327 4412 4314 4342 4414 4415 4341 4384 4413 4306 4287 4327 4385 4343 4342 4362 4387 4386 4416 4389 4291 4306 4385 4391 4320 4390 4417 4388 4387 4332 4404 4389 4306 4407 4418 4392 4333 4405 4390 4353 4255 4345 4349 4355 4348 4419 4395 4352 4393 4265 4349 4398 4300 4351 4420 4401 4326 4394 4399 4353 4265 4349 4363 4354 4351 4395 4396 4364 4421 4367 4269 4353 4363 4369 4356 4422 4403 4366 4396 4327 4300 4398 4357 4361 4399 4400 4397 4359 4423 4363 4265 4398 4327 4364 4401 4424 4402 4329 4400 4306 4363 4425 4327 4365 4427 4428 4362 4402 4426 4367 4306 4363 4404 4368 4365 4403 4406 4405 4429 4430 4332 4367 4404 4433 4370 4432 4431 4407 4406 4379 4281 4375 4371 4381 4378 4410 4434 4374 4408 4287 4412 4375 4314 4415 4435 4377 4341 4413 4409 4379 4287 4385 4375 4380 4386 4411 4410 4377 4436 4389 4291 4385 4379 4391 4388 4417 4437 4382 4411 4327 4314 4357 4412 4384 4383 4397 4414 4413 4438 4385 4287 4327 4412 4386 4342 4416 4439 4415 4414 4306 4425 4385 4327 4428 4440 4387 4362 4426 4416 4389 4306 4404 4385 4390 4405 4418 4417 4387 4441 4430 4332 4404 4389 4433 4407 4431 4442 4392 4418 4353 4345 4443 4349 4419 4445 4446 4395 4393 4444 4363 4265 4349 4398 4364 4351 4421 4424 4401 4420 4353 4447 4363 4349 4450 4449 4396 4395 4448 4421 4367 4353 4451 4363 4422 4453 4454 4403 4396 4452 4327 4398 4455 4357 4400 4457 4458 4397 4423 4456 4363 4327 4398 4425 4402 4400 4424 4427 4426 4459 4404 4306 4363 4425 4405 4365 4429 4460 4428 4427 4367 4461 4404 4363 4464 4463 4406 4403 4462 4429 4430 4367 4465 4404 4432 4467 4468 4431 4406 4466 4379 4371 4375 4469 4434 4408 4410 4472 4471 4470 4385 4287 4412 4375 4386 4415 4439 4436 4377 4435 4379 4385 4473 4375 4411 4475 4476 4410 4436 4474 4389 4379 4385 4477 4437 4411 4417 4480 4479 4478 4327 4455 4412 4357 4458 4481 4414 4397 4456 4438 4385 4327 4425 4412 4416 4426 4440 4439 4414 4482 4404 4306 4425 4385 4405 4428 4460 4441 4387 4440 4389 4404 4483 4385 4418 4485 4486 4417 4441 4484 4430 4389 4404 4487 4442 4418 4431 4490 4489 4488 4353 4443 4447 4349 4446 4491 4450 4395 4444 4448 4363 4349 4447 4398 4421 4448 4449 4424 4420 4492 4451 4353 4447 4363 4453 4450 4493 4452 4396 4449 4367 4451 4461 4363 4454 4494 4464 4403 4452 4462 4425 4327 4398 4455 4426 4400 4459 4495 4458 4457 4363 4496 4425 4398 4499 4498 4427 4424 4497 4459 4404 4363 4461 4425 4429 4462 4463 4460 4427 4500 4465 4367 4461 4404 4467 4464 4501 4466 4406 4463 4430 4465 4502 4404 4468 4504 4505 4431 4466 4503 4379 4473 4469 4375 4476 4506 4472 4410 4474 4470 4385 4375 4412 4473 4436 4435 4439 4475 4474 4507 4477 4379 4385 4473 4479 4411 4478 4508 4476 4475 4389 4483 4477 4385 4486 4509 4480 4417 4484 4478 4425 4327 4455 4412 4426 4458 4495 4482 4414 4481 4385 4425 4510 4412 4440 4512 4513 4439 4482 4511 4404 4385 4425 4483 4441 4440 4460 4485 4484 4514 4487 4389 4404 4483 4489 4418 4488 4515 4486 4485 4430 4502 4487 4404 4505 4516 4490 4431 4503 4488 4451 4353 4443 4447 4453 4446 4517 4493 4450 4491 4363 4447 4496 4398 4449 4518 4499 4424 4492 4497 4451 4363 4447 4461 4452 4449 4493 4494 4462 4519 4465 4367 4451 4461 4467 4454 4520 4501 4464 4494 4425 4398 4496 4455 4459 4497 4498 4495 4457 4521 4461 4363 4496 4425 4462 4499 4522 4500 4427 4498 4404 4461 4523 4425 4463 4525 4526 4460 4500 4524 4465 4404 4461 4502 4466 4463 4501 4504 4503 4527 4528 4430 4465 4502 4531 4468 4530 4529 4505 4504 4477 4379 4473 4469 4479 4476 4508 4532 4472 4506 4385 4510 4473 4412 4513 4533 4475 4439 4511 4507 4477 4385 4483 4473 4478 4484 4509 4508 4475 4534 4487 4389 4483 4477 4489 4486 4515 4535 4480 4509 4425 4412 4455 4510 4482 4481 4495 4512 4511 4536 4483 4385 4425 4510 4484 4440 4514 4537 4513 4512 4404 4523 4483 4425 4526 4538 4485 4460 4524 4514 4487 4404 4502 4483 4488 4503 4516 4515 4485 4539 4528 4430 4502 4487 4531 4505 4529 4540 4490 4516 4451 4443 4541 4447 4517 4543 4544 4493 4491 4542 4461 4363 4447 4496 4462 4449 4519 4522 4499 4518 4451 4545 4461 4447 4548 4547 4494 4493 4546 4519 4465 4451 4549 4461 4520 4551 4552 4501 4494 4550 4425 4496 4553 4455 4498 4555 4556 4495 4521 4554 4461 4425 4496 4523 4500 4498 4522 4525 4524 4557 4502 4404 4461 4523 4503 4463 4527 4558 4526 4525 4465 4559 4502 4461 4562 4561 4504 4501 4560 4527 4528 4465 4563 4502 4530 4565 4566 4529 4504 4564 4477 4469 4473 4567 4532 4506 4508 4570 4569 4568 4483 4385 4510 4473 4484 4513 4537 4534 4475 4533 4477 4483 4571 4473 4509 4573 4574 4508 4534 4572 4487 4477 4483 4575 4535 4509 4515 4578 4577 4576 4425 4553 4510 4455 4556 4579 4512 4495 4554 4536 4483 4425 4523 4510 4514 4524 4538 4537 4512 4580 4502 4404 4523 4483 4503 4526 4558 4539 4485 4538 4487 4502 4581 4483 4516 4583 4584 4515 4539 4582 4528 4487 4502 4585 4540 4516 4529 4588 4587 4586 4451 4541 4545 4447 4544 4589 4548 4493 4542 4546 4461 4447 4545 4496 4519 4546 4547 4522 4518 4590 4549 4451 4545 4461 4551 4548 4591 4550 4494 4547 4465 4549 4559 4461 4552 4592 4562 4501 4550 4560 4523 4425 4496 4553 4524 4498 4557 4593 4556 4555 4461 4594 4523 4496 4597 4596 4525 4522 4595 4557 4502 4461 4559 4523 4527 4560 4561 4558 4525 4598 4563 4465 4559 4502 4565 4562 4599 4564 4504 4561 4528 4563 4600 4502 4566 4602 4603 4529 4564 4601 4477 4571 4567 4473 4574 4604 4570 4508 4572 4568 4483 4473 4510 4571 4534 4533 4537 4573 4572 4605 4575 4477 4483 4571 4577 4509 4576 4606 4574 4573 4487 4581 4575 4483 4584 4607 4578 4515 4582 4576 4523 4425 4553 4510 4524 4556 4593 4580 4512 4579 4483 4523 4608 4510 4538 4610 4611 4537 4580 4609 4502 4483 4523 4581 4539 4538 4558 4583 4582 4612 4585 4487 4502 4581 4587 4516 4586 4613 4584 4583 4528 4600 4585 4502 4603 4614 4588 4529 4601 4586 4549 4451 4541 4545 4551 4544 4615 4591 4548 4589 4461 4545 4594 4496 4547 4616 4597 4522 4590 4595 4549 4461 4545 4559 4550 4547 4591 4592 4560 4617 4563 4465 4549 4559 4565 4552 4618 4599 4562 4592 4523 4496 4594 4553 4557 4595 4596 4593 4555 4619 4559 4461 4594 4523 4560 4597 4620 4598 4525 4596 4502 4559 4621 4523 4561 4623 4624 4558 4598 4622 4563 4502 4559 4600 4564 4561 4599 4602 4601 4625 4626 4528 4563 4600 4629 4566 4628 4627 4603 4602 4575 4477 4571 4567 4577 4574 4606 4630 4570 4604 4483 4608 4571 4510 4611 4631 4573 4537 4609 4605 4575 4483 4581 4571 4576 4582 4607 4606 4573 4632 4585 4487 4581 4575 4587 4584 4613 4633 4578 4607 4523 4510 4553 4608 4580 4579 4593 4610 4609 4634 4581 4483 4523 4608 4582 4538 4612 4635 4611 4610 4502 4621 4581 4523 4624 4636 4583 4558 4622 4612 4585 4502 4600 4581 4586 4601 4614 4613 4583 4637 4626 4528 4600 4585 4629 4603 4627 4638 4588 4614 4549 4541 4639 4545 4615 4641 4642 4591 4589 4640 4559 4461 4545 4594 4560 4547 4617 4620 4597 4616 4549 4643 4559 4545 4646 4645 4592 4591 4644 4617 4563 4549 4647 4559 4618 4649 4650 4599 4592 4648 4523 4594 4651 4553 4596 4653 4654 4593 4619 4652 4559 4523 4594 4621 4598 4596 4620 4623 4622 4655 4600 4502 4559 4621 4601 4561 4625 4656 4624 4623 4563 4657 4600 4559 4660 4659 4602 4599 4658 4625 4626 4563 4661 4600 4628 4663 4664 4627 4602 4662 4575 4567 4571 4665 4630 4604 4606 4668 4667 4666 4581 4483 4608 4571 4582 4611 4635 4632 4573 4631 4575 4581 4669 4571 4607 4671 4672 4606 4632 4670 4585 4575 4581 4673 4633 4607 4613 4676 4675 4674 4523 4651 4608 4553 4654 4677 4610 4593 4652 4634 4581 4523 4621 4608 4612 4622 4636 4635 4610 4678 4600 4502 4621 4581 4601 4624 4656 4637 4583 4636 4585 4600 4679 4581 4614 4681 4682 4613 4637 4680 4626 4585 4600 4683 4638 4614 4627 4686 4685 4684 4549 4639 4643 4545 4642 4687 4646 4591 4640 4644 4559 4545 4643 4594 4617 4644 4645 4620 4616 4688 4647 4549 4643 4559 4649 4646 4689 4648 4592 4645 4563 4647 4657 4559 4650 4690 4660 4599 4648 4658 4621 4523 4594 4651 4622 4596 4655 4691 4654 4653 4559 4692 4621 4594 4695 4694 4623 4620 4693 4655 4600 4559 4657 4621 4625 4658 4659 4656 4623 4696 4661 4563 4657 4600 4663 4660 4697 4662 4602 4659 4626 4661 4698 4600 4664 4700 4701 4627 4662 4699 4575 4669 4665 4571 4672 4702 4668 4606 4670 4666 4581 4571 4608 4669 4632 4631 4635 4671 4670 4703 4673 4575 4581 4669 4675 4607 4674 4704 4672 4671 4585 4679 4673 4581 4682 4705 4676 4613 4680 4674 4621 4523 4651 4608 4622 4654 4691 4678 4610 4677 4581 4621 4706 4608 4636 4708 4709 4635 4678 4707 4600 4581 4621 4679 4637 4636 4656 4681 4680 4710 4683 4585 4600 4679 4685 4614 4684 4711 4682 4681 4626 4698 4683 4600 4701 4712 4686 4627 4699 4684 4647 4549 4639 4643 4649 4642 4713 4689 4646 4687 4559 4643 4692 4594 4645 4714 4695 4620 4688 4693 4647 4559 4643 4657 4648 4645 4689 4690 4658 4715 4661 4563 4647 4657 4663 4650 4716 4697 4660 4690 4621 4594 4692 4651 4655 4693 4694 4691 4653 4717 4657 4559 4692 4621 4658 4695 4718 4696 4623 4694 4600 4657 4719 4621 4659 4721 4722 4656 4696 4720 4661 4600 4657 4698 4662 4659 4697 4700 4699 4723 4724 4626 4661 4698 4727 4664 4726 4725 4701 4700 4673 4575 4669 4665 4675 4672 4704 4728 4668 4702 4581 4706 4669 4608 4709 4729 4671 4635 4707 4703 4673 4581 4679 4669 4674 4680 4705 4704 4671 4730 4683 4585 4679 4673 4685 4682 4711 4731 4676 4705 4621 4608 4651 4706 4678 4677 4691 4708 4707 4732 4679 4581 4621 4706 4680 4636 4710 4733 4709 4708 4600 4719 4679 4621 4722 4734 4681 4656 4720 4710 4683 4600 4698 4679 4684 4699 4712 4711 4681 4735 4724 4626 4698 4683 4727 4701 4725 4736 4686 4712 4647 4639 4737 4643 4713 4739 4740 4689 4687 4738 4657 4559 4643 4692 4658 4645 4715 4718 4695 4714 4647 4741 4657 4643 4744 4743 4690 4689 4742 4715 4661 4647 4745 4657 4716 4747 4748 4697 4690 4746 4621 4692 4749 4651 4694 4751 4752 4691 4717 4750 4657 4621 4692 4719 4696 4694 4718 4721 4720 4753 4698 4600 4657 4719 4699 4659 4723 4754 4722 4721 4661 4755 4698 4657 4758 4757 4700 4697 4756 4723 4724 4661 4759 4698 4726 4761 4762 4725 4700 4760 4673 4665 4669 4763 4728 4702 4704 4766 4765 4764 4679 4581 4706 4669 4680 4709 4733 4730 4671 4729 4673 4679 4767 4669 4705 4769 4770 4704 4730 4768 4683 4673 4679 4771 4731 4705 4711 4774 4773 4772 4621 4749 4706 4651 4752 4775 4708 4691 4750 4732 4679 4621 4719 4706 4710 4720 4734 4733 4708 4776 4698 4600 4719 4679 4699 4722 4754 4735 4681 4734 4683 4698 4777 4679 4712 4779 4780 4711 4735 4778 4724 4683 4698 4781 4736 4712 4725 4784 4783 4782 4647 4737 4741 4643 4740 4785 4744 4689 4738 4742 4657 4643 4741 4692 4715 4742 4743 4718 4714 4786 4745 4647 4741 4657 4747 4744 4787 4746 4690 4743 4661 4745 4755 4657 4748 4788 4758 4697 4746 4756 4719 4621 4692 4749 4720 4694 4753 4789 4752 4751 4657 4790 4719 4692 4793 4792 4721 4718 4791 4753 4698 4657 4755 4719 4723 4756 4757 4754 4721 4794 4759 4661 4755 4698 4761 4758 4795 4760 4700 4757 4724 4759 4796 4698 4762 4798 4799 4725 4760 4797 4673 4767 4763 4669 4770 4800 4766 4704 4768 4764 4679 4669 4706 4767 4730 4729 4733 4769 4768 4801 4771 4673 4679 4767 4773 4705 4772 4802 4770 4769 4683 4777 4771 4679 4780 4803 4774 4711 4778 4772 4719 4621 4749 4706 4720 4752 4789 4776 4708 4775 4679 4719 4804 4706 4734 4806 4807 4733 4776 4805 4698 4679 4719 4777 4735 4734 4754 4779 4778 4808 4781 4683 4698 4777 4783 4712 4782 4809 4780 4779 4724 4796 4781 4698 4799 4810 4784 4725 4797 4782 4745 4647 4737 4741 4747 4740 4811 4787 4744 4785 4657 4741 4790 4692 4743 4812 4793 4718 4786 4791 4745 4657 4741 4755 4746 4743 4787 4788 4756 4813 4759 4661 4745 4755 4761 4748 4814 4795 4758 4788 4719 4692 4790 4749 4753 4791 4792 4789 4751 4815 4755 4657 4790 4719 4756 4793 4816 4794 4721 4792 4698 4755 4817 4719 4757 4819 4820 4754 4794 4818 4759 4698 4755 4796 4760 4757 4795 4798 4797 4821 4771 4673 4767 4763 4773 4770 4802 4822 4766 4800 4679 4804 4767 4706 4807 4823 4769 4733 4805 4801 4771 4679 4777 4767 4772 4778 4803 4802 4769 4824 4781 4683 4777 4771 4783 4780 4809 4825 4774 4803 4719 4706 4749 4804 4776 4775 4789 4806 4805 4826 4777 4679 4719 4804 4778 4734 4808 4827 4807 4806 4698 4817 4777 4719 4820 4828 4779 4754 4818 4808 4781 4698 4796 4777 4782 4797 4810 4809 4779 4829 4745 4737 4830 4741 4811 4832 4833 4787 4785 4831 4755 4657 4741 4790 4756 4743 4813 4816 4793 4812 4745 4834 4755 4741 4837 4836 4788 4787 4835 4813 4759 4745 4838 4755 4814 4840 4841 4795 4788 4839 4719 4790 4842 4749 4792 4844 4845 4789 4815 4843 4755 4719 4790 4817 4794 4792 4816 4819 4818 4846 4796 4698 4755 4817 4797 4757 4821 4847 4820 4819 4759 4848 4796 4755 4851 4850 4798 4795 4849 4821 4771 4763 4767 4852 4822 4800 4802 4855 4854 4853 4777 4679 4804 4767 4778 4807 4827 4824 4769 4823 4771 4777 4856 4767 4803 4858 4859 4802 4824 4857 4781 4771 4777 4860 4825 4803 4809 4863 4862 4861 4719 4842 4804 4749 4845 4864 4806 4789 4843 4826 4777 4719 4817 4804 4808 4818 4828 4827 4806 4865 4796 4698 4817 4777 4797 4820 4847 4829 4779 4828 4781 4796 4866 4777 4810 4868 4869 4809 4829 4867 4745 4830 4834 4741 4833 4870 4837 4787 4831 4835 4755 4741 4834 4790 4813 4835 4836 4816 4812 4871 4838 4745 4834 4755 4840 4837 4872 4839 4788 4836 4759 4838 4848 4755 4841 4873 4851 4795 4839 4849 4817 4719 4790 4842 4818 4792 4846 4874 4845 4844 4755 4875 4817 4790 4878 4877 4819 4816 4876 4846 4796 4755 4848 4817 4821 4849 4850 4847 4819 4879 4771 4856 4852 4767 4859 4880 4855 4802 4857 4853 4777 4767 4804 4856 4824 4823 4827 4858 4857 4881 4860 4771 4777 4856 4862 4803 4861 4882 4859 4858 4781 4866 4860 4777 4869 4883 4863 4809 4867 4861 4817 4719 4842 4804 4818 4845 4874 4865 4806 4864 4777 4817 4884 4804 4828 4886 4887 4827 4865 4885 4796 4777 4817 4866 4829 4828 4847 4868 4867 4888 4838 4745 4830 4834 4840 4833 4889 4872 4837 4870 4755 4834 4875 4790 4836 4890 4878 4816 4871 4876 4838 4755 4834 4848 4839 4836 4872 4873 4849 4891 4817 4790 4875 4842 4846 4876 4877 4874 4844 4892 4848 4755 4875 4817 4849 4878 4893 4879 4819 4877 4796 4848 4894 4817 4850 4896 4897 4847 4879 4895 4860 4771 4856 4852 4862 4859 4882 4898 4855 4880 4777 4884 4856 4804 4887 4899 4858 4827 4885 4881 4860 4777 4866 4856 4861 4867 4883 4882 4858 4900 4817 4804 4842 4884 4865 4864 4874 4886 4885 4901 4866 4777 4817 4884 4867 4828 4888 4902 4887 4886 4796 4894 4866 4817 4897 4903 4868 4847 4895 4888 4838 4830 4904 4834 4889 4906 4907 4872 4870 4905 4848 4755 4834 4875 4849 4836 4891 4893 4878 4890 4838 4908 4848 4834 4911 4910 4873 4872 4909 4891 4817 4875 4912 4842 4877 4914 4915 4874 4892 4913 4848 4817 4875 4894 4879 4877 4893 4896 4895 4916 4860 4852 4856 4917 4898 4880 4882 4920 4919 4918 4866 4777 4884 4856 4867 4887 4902 4900 4858 4899 4860 4866 4921 4856 4883 4923 4924 4882 4900 4922 4817 4912 4884 4842 4915 4925 4886 4874 4913 4901 4866 4817 4894 4884 4888 4895 4903 4902 4886 4926 4838 4904 4908 4834 4907 4927 4911 4872 4905 4909 4848 4834 4908 4875 4891 4909 4910 4893 4890 4928 4894 4817 4875 4912 4895 4877 4916 4929 4915 4914 4848 4930 4894 4875 4933 4932 4896 4893 4931 4916 4860 4921 4917 4856 4924 4934 4920 4882 4922 4918 4866 4856 4884 4921 4900 4899 4902 4923 4922 4935 4894 4817 4912 4884 4895 4915 4929 4926 4886 4925 4866 4894 4936 4884 4903 4938 4939 4902 4926 4937 4848 4908 4930 4875 4910 4940 4933 4893 4928 4931 4894 4875 4930 4912 4916 4931 4932 4929 4914 4941 4866 4936 4921 4884 4939 4942 4923 4902 4937 4935 4894 4884 4912 4936 4926 4925 4929 4938 4937 4943 4894 4930 4944 4912 4932 4946 4947 4929 4941 4945 4894 4944 4936 4912 4947 4948 4938 4929 4945 4943 </DataArray>
        <DataArray type="Int32" Name="offsets" format="ascii">10 20 30 40 50 60 70 80 90 100 110 120 130 140 150 160 170 180 190 200 210 220 230 240 250 260 270 280 290 300 310 320 330 340 350 360 370 380 390 400 410 420 430 440 450 460 470 480 490 500 510 520 530 540 550 560 570 580 590 600 610 620 630 640 650 660 670 680 690 700 710 720 730 740 750 760 770 780 790 800 810 820 830 840 850 860 870 880 890 900 910 920 930 940 950 960 970 980 990 1000 1010 1020 1030 1040 1050 1060 1070 1080 1090 1100 1110 1120 1130 1140 1150 1160 1170 1180 1190 1200 1210 1220 1230 1240 1250 1260 1270 1280 1290 1300 1310 1320 1330 1340 1350 1360 1370 1380 1390 1400 1410 1420 1430 1440 1450 1460 1470 1480 1490 1500 1510 1520 1530 1540 1550 1560 1570 1580 1590 1600 1610 1620 1630 1640 1650 1660 1670 1680 1690 1700 1710 1720 1730 1740 1750 1760 1770 1780 1790 1800 1810 1820 1830 1840 1850 1860 1870 1880 1890 1900 1910 1920 1930 1940 1950 1960 1970 1980 1990 2000 2010 2020 2030 2040 2050 2060 2070 2080 2090 2100 2110 2120 2130 2140 2150 2160 2170 2180 2190 2200 2210 2220 2230 2240 2250 2260 2270 2280 2290 2300 2310 2320 2330 2340 2350 2360 2370 2380 2390 2400 2410 2420 2430 2440 2450 2460 2470 2480 2490 2500 2510 2520 2530 2540 2550 2560 2570 2580 2590 2600 2610 2620 2630 2640 2650 2660 2670 2680 2690 2700 2710 2720 2730 2740 2750 2760 2770 2780 2790 2800 2810 2820 2830 2840 2850 2860 2870 2880 2890 2900 2910 2920 2930 2940 2950 2960 2970 2980 2990 3000 3010 3020 3030 3040 3050 3060 3070 3080 3090 3100 3110 3120 3130 3140 3150 3160 3170 3180 3190 3200 3210 3220 3230 3240 3250 3260 3270 3280 3290 3300 3310 3320 3330 3340 3350 3360 3370 3380 3390 3400 3410 3420 3430 3440 3450 3460 3470 3480 3490 3500 3510 3520 3530 3540 3550 3560 3570 3580 3590 3600 3610 3620 3630 3640 3650 3660 3670 3680 3690 3700 3710 3720 3730 3740 3750 3760 3770 3780 3790 3800 3810 3820 3830 3840 3850 3860 3870 3880 3890 3900 3910 3920 3930 3940 3950 3960 3970 3980 3990 4000 4010 4020 4030 4040 4050 4060 4070 4080 4090 4100 4110 4120 4130 4140 4150 4160 4170 4180 4190 4200 4210 4220 4230 4240 4250 4260 4270 4280 4290 4300 4310 4320 4330 4340 4350 4360 4370 4380 4390 4400 4410 4420 4430 4440 4450 4460 4470 4480 4490 4500 4510 4520 4530 4540 4550 4560 4570 4580 4590 4600 4610 4620 4630 4640 4650 4660 4670 4680 4690 4700 4710 4720 4730 4740 4750 4760 4770 4780 4790 4800 4810 4820 4830 4840 4850 4860 4870 4880 4890 4900 4910 4920 4930 4940 4950 4960 4970 4980 4990 5000 5010 5020 5030 5040 5050 5060 5070 5080 5090 5100 5110 5120 5130 5140 5150 5160 5170 5180 5190 5200 5210 5220 5230 5240 5250 5260 5270 5280 5290 5300 5310 5320 5330 5340 5350 5360 5370 5380 5390 5400 5410 5420 5430 5440 5450 5460 5470 5480 5490 5500 5510 5520 5530 5540 5550 5560 5570 5580 5590 5600 5610 5620 5630 5640 5650 5660 5670 5680 5690 5700 5710 5720 5730 5740 5750 5760 5770 5780 5790 5800 5810 5820 5830 5840 5850 5860 5870 5880 5890 5900 5910 5920 5930 5940 5950 5960 5970 5980 5990 6000 6010 6020 6030 6040 6050 6060 6070 6080 6090 6100 6110 6120 6130 6140 6150 6160 6170 6180 6190 6200 6210 6220 6230 6240 6250 6260 6270 6280 6290 6300 6310 6320 6330 6340 6350 6360 6370 6380 6390 6400 6410 6420 6430 6440 6450 6460 6470 6480 6490 6500 6510 6520 6530 6540 6550 6560 6570 6580 6590 6600 6610 6620 6630 6640 6650 6660 6670 6680 6690 6700 6710 6720 6730 6740 6750 6760 6770 6780 6790 6800 6810 6820 6830 6840 6850 6860 6870 6880 6890 6900 6910 6920 6930 6940 6950 6960 6970 6980 6990 7000 7010 7020 7030 7040 7050 7060 7070 7080 7090 7100 7110 7120 7130 7140 7150 7160 7170 7180 7190 7200 7210 7220 7230 7240 7250 7260 7270 7280 7290 7300 7310 7320 7330 7340 7350 7360 7370 7380 7390 7400 7410 7420 7430 7440 7450 7460 7470 7480 7490 7500 7510 7520 7530 7540 7550 7560 7570 7580 7590 7600 7610 7620 7630 7640 7650 7660 7670 7680 7690 7700 7710 7720 7730 7740 7750 7760 7770 7780 7790 7800 7810 7820 7830 7840 7850 7860 7870 7880 7890 7900 7910 7920 7930 7940 7950 7960 7970 7980 7990 8000 8010 8020 8030 8040 8050 8060 8070 8080 8090 8100 8110 8120 8130 8140 8150 8160 8170 8180 8190 8200 8210 8220 8230 8240 8250 8260 8270 8280 8290 8300 8310 8320 8330 8340 8350 8360 8370 8380 8390 8400 8410 8420 8430 8440 8450 8460 8470 8480 8490 8500 8510 8520 8530 8540 8550 8560 8570 8580 8590 8600 8610 8620 8630 8640 8650 8660 8670 8680 8690 8700 8710 8720 8730 8740 8750 8760 8770 8780 8790 8800 8810 8820 8830 8840 8850 8860 8870 8880 8890 8900 8910 8920 8930 8940 8950 8960 8970 8980 8990 9000 9010 9020 9030 9040 9050 9060 9070 9080 9090 9100 9110 9120 9130 9140 9150 9160 9170 9180 9190 9200 9210 9220 9230 9240 9250 9260 9270 9280 9290 9300 9310 9320 9330 9340 9350 9360 9370 9380 9390 9400 9410 9420 9430 9440 9450 9460 9470 9480 9490 9500 9510 9520 9530 9540 9550 9560 9570 9580 9590 9600 9610 9620 9630 9640 9650 9660 9670 9680 9690 9700 9710 9720 9730 9740 9750 9760 9770 9780 9790 9800 9810 9820 9830 9840 9850 9860 9870 9880 9890 9900 9910 9920 9930 9940 9950 9960 9970 9980 9990 10000 10010 10020 10030 10040 10050 10060 10070 10080 10090 10100 10110 10120 10130 10140 10150 10160 10170 10180 10190 10200 10210 10220 10230 10240 10250 10260 10270 10280 10290 10300 10310 10320 10330 10340 10350 10360 10370 10380 10390 10400 10410 10420 10430 10440 10450 10460 10470 10480 10490 10500 10510 10520 10530 10540 10550 10560 10570 10580 10590 10600 10610 10620 10630 10640 10650 10660 10670 10680 10690 10700 10710 10720 10730 10740 10750 10760 10770 10780 10790 10800 10810 10820 10830 10840 10850 10860 10870 10880 10890 10900 10910 10920 10930 10940 10950 10960 10970 10980 10990 11000 11010 11020 11030 11040 11050 11060 11070 11080 11090 11100 11110 11120 11130 11140 11150 11160 11170 11180 11190 11200 11210 11220 11230 11240 11250 11260 11270 11280 11290 11300 11310 11320 11330 11340 11350 11360 11370 11380 11390 11400 11410 11420 11430 11440 11450 11460 11470 11480 11490 11500 11510 11520 11530 11540 11550 11560 11570 11580 11590 11600 11610 11620 11630 11640 11650 11660 11670 11680 11690 11700 11710 11720 11730 11740 11750 11760 11770 11780 11790 11800 11810 11820 11830 11840 11850 11860 11870 11880 11890 11900 11910 11920 11930 11940 11950 11960 11970 11980 11990 12000 12010 12020 12030 12040 12050 12060 12070 12080 12090 12100 12110 12120 12130 12140 12150 12160 12170 12180 12190 12200 12210 12220 12230 12240 12250 12260 12270 12280 12290 12300 12310 12320 12330 12340 12350 12360 12370 12380 12390 12400 12410 12420 12430 12440 12450 12460 12470 12480 12490 12500 12510 12520 12530 12540 12550 12560 12570 12580 12590 12600 12610 12620 12630 12640 12650 12660 12670 12680 12690 12700 12710 12720 12730 12740 12750 12760 12770 12780 12790 12800 12810 12820 12830 12840 12850 12860 12870 12880 12890 12900 12910 12920 12930 12940 12950 12960 12970 12980 12990 13000 13010 13020 13030 13040 13050 13060 13070 13080 13090 13100 13110 13120 13130 13140 13150 13160 13170 13180 13190 13200 13210 13220 13230 13240 13250 13260 13270 13280 13290 13300 13310 13320 13330 13340 13350 13360 13370 13380 13390 13400 13410 13420 13430 13440 13450 13460 13470 13480 13490 13500 13510 13520 13530 13540 13550 13560 13570 13580 13590 13600 13610 13620 13630 13640 13650 13660 13670 13680 13690 13700 13710 13720 13730 13740 13750 13760 13770 13780 13790 13800 13810 13820 13830 13840 13850 13860 13870 13880 13890 13900 13910 13920 13930 13940 13950 13960 13970 13980 13990 14000 14010 14020 14030 14040 14050 14060 14070 14080 14090 14100 14110 14120 14130 14140 14150 14160 14170 14180 14190 14200 14210 14220 14230 14240 14250 14260 14270 14280 14290 14300 14310 14320 14330 14340 14350 14360 14370 14380 14390 14400 14410 14420 14430 14440 14450 14460 14470 14480 14490 14500 14510 14520 14530 14540 14550 14560 14570 14580 14590 14600 14610 14620 14630 14640 14650 14660 14670 14680 14690 14700 14710 14720 14730 14740 14750 14760 14770 14780 14790 14800 14810 14820 14830 14840 14850 14860 14870 14880 14890 14900 14910 14920 14930 14940 14950 14960 14970 14980 14990 15000 15010 15020 15030 15040 15050 15060 15070 15080 15090 15100 15110 15120 15130 15140 15150 15160 15170 15180 15190 15200 15210 15220 15230 15240 15250 15260 15270 15280 15290 15300 15310 15320 15330 15340 15350 15360 15370 15380 15390 15400 15410 15420 15430 15440 15450 15460 15470 15480 15490 15500 15510 15520 15530 15540 15550 15560 15570 15580 15590 15600 15610 15620 15630 15640 15650 15660 15670 15680 15690 15700 15710 15720 15730 15740 15750 15760 15770 15780 15790 15800 15810 15820 15830 15840 15850 15860 15870 15880 15890 15900 15910 15920 15930 15940 15950 15960 15970 15980 15990 16000 16010 16020 16030 16040 16050 16060 16070 16080 16090 16100 16110 16120 16130 16140 16150 16160 16170 16180 16190 16200 16210 16220 16230 16240 16250 16260 16270 16280 16290 16300 16310 16320 16330 16340 16350 16360 16370 16380 16390 16400 16410 16420 16430 16440 16450 16460 16470 16480 16490 16500 16510 16520 16530 16540 16550 16560 16570 16580 16590 16600 16610 16620 16630 16640 16650 16660 16670 16680 16690 16700 16710 16720 16730 16740 16750 16760 16770 16780 16790 16800 16810 16820 16830 16840 16850 16860 16870 16880 16890 16900 16910 16920 16930 16940 16950 16960 16970 16980 16990 17000 17010 17020 17030 17040 17050 17060 17070 17080 17090 17100 17110 17120 17130 17140 17150 17160 17170 17180 17190 17200 17210 17220 17230 17240 17250 17260 17270 17280 17290 17300 17310 17320 17330 17340 17350 17360 17370 17380 17390 17400 17410 17420 17430 17440 17450 17460 17470 17480 17490 17500 17510 17520 17530 17540 17550 17560 17570 17580 17590 17600 17610 17620 17630 17640 17650 17660 17670 17680 17690 17700 17710 17720 17730 17740 17750 17760 17770 17780 17790 17800 17810 17820 17830 17840 17850 17860 17870 17880 17890 17900 17910 17920 17930 17940 17950 17960 17970 17980 17990 18000 18010 18020 18030 18040 18050 18060 18070 18080 18090 18100 18110 18120 18130 18140 18150 18160 18170 18180 18190 18200 18210 18220 18230 18240 18250 18260 18270 18280 18290 18300 18310 18320 18330 18340 18350 18360 18370 18380 18390 18400 18410 18420 18430 18440 18450 18460 18470 18480 18490 18500 18510 18520 18530 18540 18550 18560 18570 18580 18590 18600 18610 18620 18630 18640 18650 18660 18670 18680 18690 18700 18710 18720 18730 18740 18750 18760 18770 18780 18790 18800 18810 18820 18830 18840 18850 18860 18870 18880 18890 18900 18910 18920 18930 18940 18950 18960 18970 18980 18990 19000 19010 19020 19030 19040 19050 19060 19070 19080 19090 19100 19110 19120 19130 19140 19150 19160 19170 19180 19190 19200 19210 19220 19230 19240 19250 19260 19270 19280 19290 19300 19310 19320 19330 19340 19350 19360 19370 19380 19390 19400 19410 19420 19430 19440 19450 19460 19470 19480 19490 19500 19510 19520 19530 19540 19550 19560 19570 19580 19590 19600 19610 19620 19630 19640 19650 19660 19670 19680 19690 19700 19710 19720 19730 19740 19750 19760 19770 19780 19790 19800 19810 19820 19830 19840 19850 19860 19870 19880 19890 19900 19910 19920 19930 19940 19950 19960 19970 19980 19990 20000 20010 20020 20030 20040 20050 20060 20070 20080 20090 20100 20110 20120 20130 20140 20150 20160 20170 20180 20190 20200 20210 20220 20230 20240 20250 20260 20270 20280 20290 20300 20310 20320 20330 20340 20350 20360 20370 20380 20390 20400 20410 20420 20430 20440 20450 20460 20470 20480 20490 20500 20510 20520 20530 20540 20550 20560 20570 20580 20590 20600 20610 20620 20630 20640 20650 20660 20670 20680 20690 20700 20710 20720 20730 20740 20750 20760 20770 20780 20790 20800 20810 20820 20830 20840 20850 20860 20870 20880 20890 20900 20910 20920 20930 20940 20950 20960 20970 20980 20990 21000 21010 21020 21030 21040 21050 21060 21070 21080 21090 21100 21110 21120 21130 21140 21150 21160 21170 21180 21190 21200 21210 21220 21230 21240 21250 21260 21270 21280 21290 21300 21310 21320 21330 21340 21350 21360 21370 21380 21390 21400 21410 21420 21430 21440 21450 21460 21470 21480 21490 21500 21510 21520 21530 21540 21550 21560 21570 21580 21590 21600 21610 21620 21630 21640 21650 21660 21670 21680 21690 21700 21710 21720 21730 21740 21750 21760 21770 21780 21790 21800 21810 21820 21830 21840 21850 21860 21870 21880 21890 21900 21910 21920 21930 21940 21950 21960 21970 21980 21990 22000 22010 22020 22030 22040 22050 22060 22070 22080 22090 22100 22110 22120 22130 22140 22150 22160 22170 22180 22190 22200 22210 22220 22230 22240 22250 22260 22270 22280 22290 22300 22310 22320 22330 22340 22350 22360 22370 22380 22390 22400 22410 22420 22430 22440 22450 22460 22470 22480 22490 22500 22510 22520 22530 22540 22550 22560 22570 22580 22590 22600 22610 22620 22630 22640 22650 22660 22670 22680 22690 22700 22710 22720 22730 22740 22750 22760 22770 22780 22790 22800 22810 22820 22830 22840 22850 22860 22870 22880 22890 22900 22910 22920 22930 22940 22950 22960 22970 22980 22990 23000 23010 23020 23030 23040 23050 23060 23070 23080 23090 23100 23110 23120 23130 23140 23150 23160 23170 23180 23190 23200 23210 23220 23230 23240 23250 23260 23270 23280 23290 23300 23310 23320 23330 23340 23350 23360 23370 23380 23390 23400 23410 23420 23430 23440 23450 23460 23470 23480 23490 23500 23510 23520 23530 23540 23550 23560 23570 23580 23590 23600 23610 23620 23630 23640 23650 23660 23670 23680 23690 23700 23710 23720 23730 23740 23750 23760 23770 23780 23790 23800 23810 23820 23830 23840 23850 23860 23870 23880 23890 23900 23910 23920 23930 23940 23950 23960 23970 23980 23990 24000 24010 24020 24030 24040 24050 24060 24070 24080 24090 24100 24110 24120 24130 24140 24150 24160 24170 24180 24190 24200 24210 24220 24230 24240 24250 24260 24270 24280 24290 24300 24310 24320 24330 24340 24350 24360 24370 24380 24390 24400 24410 24420 24430 24440 24450 24460 24470 24480 24490 24500 24510 24520 24530 24540 24550 24560 24570 24580 24590 24600 24610 24620 24630 24640 24650 24660 24670 24680 24690 24700 24710 24720 24730 24740 24750 24760 24770 24780 24790 24800 24810 24820 24830 24840 24850 24860 24870 24880 24890 24900 24910 24920 24930 24940 24950 24960 24970 24980 24990 25000 25010 25020 25030 25040 25050 25060 25070 25080 25090 25100 25110 25120 25130 25140 25150 25160 25170 25180 25190 25200 25210 25220 25230 25240 25250 25260 25270 25280 25290 25300 25310 25320 25330 25340 25350 25360 25370 25380 25390 25400 25410 25420 25430 25440 25450 25460 25470 25480 25490 25500 25510 25520 25530 25540 25550 25560 25570 25580 25590 25600 25610 25620 25630 25640 25650 25660 25670 25680 25690 25700 25710 25720 25730 25740 25750 25760 25770 25780 25790 25800 25810 25820 25830 25840 25850 25860 25870 25880 25890 25900 25910 25920 25930 25940 25950 25960 25970 25980 25990 26000 26010 26020 26030 26040 26050 26060 26070 26080 26090 26100 26110 26120 26130 26140 26150 26160 26170 26180 26190 26200 26210 26220 26230 26240 26250 26260 26270 26280 26290 26300 26310 26320 26330 26340 26350 26360 26370 26380 26390 26400 26410 26420 26430 26440 26450 26460 26470 26480 26490 26500 26510 26520 26530 26540 26550 26560 26570 26580 26590 26600 26610 26620 26630 26640 26650 26660 26670 26680 26690 26700 26710 26720 26730 26740 26750 26760 26770 26780 26790 26800 26810 26820 26830 26840 26850 26860 26870 26880 26890 26900 26910 26920 26930 26940 26950 26960 26970 26980 26990 27000 </DataArray>
        <DataArray type="Int8" Name="types" format="ascii">71 71 71 71 71 71 71 71 71 71 71 71 71 71 71 71 71 71 71 71 71 71 71 71 71 71 71 71 71 71 71 71 71 71 71 71 71 71 71 71 71 71 71 71 71 71 71 71 71 71 71 71 71 71 71 71 71 71 71 71 71 71 71 71 71 71 71 71 71 71 71 71 71 71 71 71 71 71 71 71 71 71 71 71 71 71 71 71 71 71 71 71 71 71 71 71 71 71 71 71 71 71 71 71 71 71 71 71 71 71 71 71 71 71 71 71 71 71 71 71 71 71 71 71 71 71 71 71 71 71 71 71 71 71 71 71 71 71 71 71 71 71 71 71 71 71 71 71 71 71 71 71 71 71 71 71 71 71 71 71 71 71 71 71 71 71 71 71 71 71 71 71 71 71 71 71 71 71 71 71 71 71 71 71 71 71 71 71 71 71 71 71 71 71 71 71 71 71 71 71 71 71 71 71 71 71 71 71 71 71 71 71 71 71 71 71 71 71 71 71 71 71 71 71 71 71 71 71 71 71 71 71 71 71 71 71 71 71 71 71 71 71 71 71 71 71 71 71 71 71 71 71 71 71 71 71 71 71 71 71 71 71 71 71 71 71 71 71 71 71 71 71 71 71 71 71 71 71 71 71 71 71 71 71 71 71 71 71 71 71 71 71 71 71 71 71 71 71 71 71 71 71 71 71 71 71 71 71 71 71 71 71 71 71 71 71 71 71 71 71 71 71 71 71 71 71 71 71 71 71 71 71 71 71 71 71 71 71 71 71 71 71 71 71 71 71 71 71 71 71 71 71 71 71 71 71 71 71 71 71 71 71 71 71 71 71 71 71 71 71 71 71 71 71 71 71 71 71 71 71 71 71 71 71 71 71 71 71 71 71 71 71 71 71 71 71 71 71 71 71 71 71 71 71 71 71 71 71 71 71 71 71 71 71 71 71 71 71 71 71 71 71 71 71 71 71 71 71 71 71 71 71 71 71 71 71 71 71 71 71 71 71 71 71 71 71 71 71 71 71 71 71 71 71 71 71 71 71 71 71 71 71 71 71 71 71 71 71 71 71 71 71 71 71 71 71 71 71 71 71 71 71 71 71 71 71 71 71 71 71 71 71 71 71 71 71 71 71 71 71 71 71 71 71 71 71 71 71 71 71 71 71 71 71 71 71 71 71 71 71 71 71 71 71 71 71 71 71 71 71 71 71 71 71 71 71 71 71 71 71 71 71 71 71 71 71 71 71 71 71 71 71 71 71 71 71 71 71 71 71 71 71 71 71 71 71 71 71 71 71 71 71 71 71 71 71 71 71 71 71 71 71 71 71 71 71 71 71 71 71 71 71 71 71 71 71 71 71 71 71 71 71 71 71 71 71 71 71 71 71 71 71 71 71 71 71 71 71 71 71 71 71 71 71 71 71 71 71 71 71 71 71 71 71 71 71 71 71 71 71 71 71 71 71 71 71 71 71 71 71 71 71 71 71 71 71 71 71 71 71 71 71 71 71 71 71 71 71 71 71 71 71 71 71 71 71 71 71 71 71 71 71 71 71 71 71 71 71 71 71 71 71 71 71 71 71 71 71 71 71 71 71 71 71 71 71 71 71 71 71 71 71 71 71 71 71 71 71 71 71 71 71 71 71 71 71 71 71 71 71 71 71 71 71 71 71 71 71 71 71 71 71 71 71 71 71 71 71 71 71 71 71 71 71 71 71 71 71 71 71 71 71 71 71 71 71 71 71 71 71 71 71 71 71 71 71 71 71 71 71 71 71 71 71 71 71 71 71 71 71 71 71 71 71 71 71 71 71 71 71 71 71 71 71 71 71 71 71 71 71 71 71 71 71 71 71 71 71 71 71 71 71 71 71 71 71 71 71 71 71 71 71 71 71 71 71 71 71 71 71 71 71 71 71 71 71 71 71 71 71 71 71 71 71 71 71 71 71 71 71 71 71 71 71 71 71 71 71 71 71 71 71 71 71 71 71 71 71 71 71 71 71 71 71 71 71 71 71 71 71 71 71 71 71 71 71 71 71 71 71 71 71 71 71 71 71 71 71 71 71 71 71 71 71 71 71 71 71 71 71 71 71 71 71 71 71 71 71 71 71 71 71 71 71 71 71 71 71 71 71 71 71 71 71 71 71 71 71 71 71 71 71 71 71 71 71 71 71 71 71 71 71 71 71 71 71 71 71 71 71 71 71 71 71 71 71 71 71 71 71 71 71 71 71 71 71 71 71 71 71 71 71 71 71 71 71 71 71 71 71 71 71 71 71 71 71 71 71 71 71 71 71 71 71 71 71 71 71 71 71 71 71 71 71 71 71 71 71 71 71 71 71 71 71 71 71 71 71 71 71 71 71 71 71 71 71 71 71 71 71 71 71 71 71 71 71 71 71 71 71 71 71 71 71 71 71 71 71 71 71 71 71 71 71 71 71 71 71 71 71 71 71 71 71 71 71 71 71 71 71 71 71 71 71 71 71 71 71 71 71 71 71 71 71 71 71 71 71 71 71 71 71 71 71 71 71 71 71 71 71 71 71 71 71 71 71 71 71 71 71 71 71 71 71 71 71 71 71 71 71 71 71 71 71 71 71 71 71 71 71 71 71 71 71 71 71 71 71 71 71 71 71 71 71 71 71 71 71 71 71 71 71 71 71 71 71 71 71 71 71 71 71 71 71 71 71 71 71 71 71 71 71 71 71 71 71 71 71 71 71 71 71 71 71 71 71 71 71 71 71 71 71 71 71 71 71 71 71 71 71 71 71 71 71 71 71 71 71 71 71 71 71 71 71 71 71 71 71 71 71 71 71 71 71 71 71 71 71 71 71 71 71 71 71 71 71 71 71 71 71 71 71 71 71 71 71 71 71 71 71 71 71 71 71 71 71 71 71 71 71 71 71 71 71 71 71 71 71 71 71 71 71 71 71 71 71 71 71 71 71 71 71 71 71 71 71 71 71 71 71 71 71 71 71 71 71 71 71 71 71 71 71 71 71 71 71 71 71 71 71 71 71 71 71 71 71 71 71 71 71 71 71 71 71 71 71 71 71 71 71 71 71 71 71 71 71 71 71 71 71 71 71 71 71 71 71 71 71 71 71 71 71 71 71 71 71 71 71 71 71 71 71 71 71 71 71 71 71 71 71 71 71 71 71 71 71 71 71 71 71 71 71 71 71 71 71 71 71 71 71 71 71 71 71 71 71 71 71 71 71 71 71 71 71 71 71 71 71 71 71 71 71 71 71 71 71 71 71 71 71 71 71 71 71 71 71 71 71 71 71 71 71 71 71 71 71 71 71 71 71 71 71 71 71 71 71 71 71 71 71 71 71 71 71 71 71 71 71 71 71 71 71 71 71 71 71 71 71 71 71 71 71 71 71 71 71 71 71 71 71 71 71 71 71 71 71 71 71 71 71 71 71 71 71 71 71 71 71 71 71 71 71 71 71 71 71 71 71 71 71 71 71 71 71 71 71 71 71 71 71 71 71 71 71 71 71 71 71 71 71 71 71 71 71 71 71 71 71 71 71 71 71 71 71 71 71 71 71 71 71 71 71 71 71 71 71 71 71 71 71 71 71 71 71 71 71 71 71 71 71 71 71 71 71 71 71 71 71 71 71 71 71 71 71 71 71 71 71 71 71 71 71 71 71 71 71 71 71 71 71 71 71 71 71 71 71 71 71 71 71 71 71 71 71 71 71 71 71 71 71 71 71 71 71 71 71 71 71 71 71 71 71 71 71 71 71 71 71 71 71 71 71 71 71 71 71 71 71 71 71 71 71 71 71 71 71 71 71 71 71 71 71 71 71 71 71 71 71 71 71 71 71 71 71 71 71 71 71 71 71 71 71 71 71 71 71 71 71 71 71 71 71 71 71 71 71 71 71 71 71 71 71 71 71 71 71 71 71 71 71 71 71 71 71 71 71 71 71 71 71 71 71 71 71 71 71 71 71 71 71 71 71 71 71 71 71 71 71 71 71 71 71 71 71 71 71 71 71 71 71 71 71 71 71 71 71 71 71 71 71 71 71 71 71 71 71 71 71 71 71 71 71 71 71 71 71 71 71 71 71 71 71 71 71 71 71 71 71 71 71 71 71 71 71 71 71 71 71 71 71 71 71 71 71 71 71 71 71 71 71 71 71 71 71 71 71 71 71 71 71 71 71 71 71 71 71 71 71 71 71 71 71 71 71 71 71 71 71 71 71 71 71 71 71 71 71 71 71 71 71 71 71 71 71 71 71 71 71 71 71 71 71 71 71 71 71 71 71 71 71 71 71 71 71 71 71 71 71 71 71 71 71 71 71 71 71 71 71 71 71 71 71 71 71 71 71 71 71 71 71 71 71 71 71 71 71 71 71 71 71 71 71 71 71 71 71 71 71 71 71 71 71 71 71 71 71 71 71 71 71 71 71 71 71 71 71 71 71 71 71 71 71 71 71 71 71 71 71 71 71 71 71 71 71 71 71 71 71 71 71 71 71 71 71 71 71 71 71 71 71 71 71 71 71 71 71 71 71 71 71 71 71 71 71 71 71 71 71 71 71 71 71 71 71 71 71 71 71 71 71 71 71 71 71 71 71 71 71 71 71 71 71 71 71 71 71 71 71 71 71 71 71 71 71 71 71 71 71 71 71 71 71 71 71 71 71 71 71 71 71 71 71 71 71 71 71 71 71 71 71 71 71 71 71 71 71 71 71 71 71 71 71 71 71 71 71 71 71 71 71 71 71 71 71 71 71 71 71 71 71 71 71 71 71 71 71 71 71 71 71 71 71 71 71 71 71 71 71 71 71 71 71 71 71 71 71 71 71 71 71 71 71 71 71 71 71 71 71 71 71 71 71 71 71 71 71 71 71 71 71 71 71 71 71 71 71 71 71 71 71 71 71 71 71 71 71 71 71 71 71 71 71 71 71 71 71 71 71 71 71 71 71 71 71 71 71 71 71 71 71 71 71 71 71 71 71 71 71 71 71 71 71 71 71 71 71 71 71 71 71 71 71 71 71 71 71 71 71 71 71 71 71 71 71 71 71 71 71 71 71 71 71 71 71 71 71 71 71 71 71 71 71 71 71 71 71 71 71 71 71 71 71 71 71 71 71 71 71 71 71 71 71 71 71 71 71 71 71 71 71 71 71 71 71 71 71 71 71 71 71 71 71 71 71 71 71 71 71 71 71 71 71 71 71 71 71 71 71 71 71 71 71 71 71 71 71 71 71 71 71 71 71 71 71 71 71 71 71 71 71 71 71 71 71 71 71 71 71 71 71 71 71 71 71 71 71 71 71 71 71 71 71 71 71 71 71 71 71 71 71 71 71 71 71 71 71 71 71 71 71 71 71 71 71 71 71 71 71 71 71 71 71 71 71 71 71 71 71 71 71 71 71 71 71 71 71 71 71 71 71 71 71 71 71 71 71 71 71 71 71 71 71 71 71 71 71 71 71 71 71 71 71 71 71 71 71 71 71 71 71 71 71 71 71 71 71 71 71 71 71 71 71 71 71 71 71 71 71 71 71 71 71 71 71 71 71 71 71 71 71 71 71 71 71 71 71 71 71 71 71 71 71 71 71 71 71 71 71 71 71 71 71 71 71 71 71 71 71 71 71 71 71 71 71 71 71 71 71 71 71 71 71 71 71 71 71 71 71 71 71 71 71 71 71 71 71 71 71 71 71 71 71 71 71 71 71 71 71 71 71 71 71 71 71 71 71 71 71 71 71 71 71 71 71 71 71 71 71 71 71 71 71 71 71 71 71 71 71 71 71 71 71 71 71 71 71 71 71 71 71 71 71 71 71 71 71 71 71 71 71 71 71 71 71 71 71 71 71 71 71 71 71 71 71 71 71 71 71 71 71 71 71 71 71 71 71 71 71 71 71 71 71 71 71 71 71 71 71 71 71 71 71 71 71 71 71 71 71 71 71 71 71 71 71 71 71 71 71 71 71 71 71 71 71 71 71 71 71 71 71 71 71 71 71 71 71 71 71 71 71 71 71 71 71 71 71 71 71 71 71 71 71 71 71 71 71 71 71 71 71 71 71 71 71 71 71 71 71 71 71 71 71 71 71 71 71 71 71 71 71 71 71 71 71 71 71 71 71 71 71 </DataArray>
      </Cells>
      <CellData>
        <DataArray type="UInt8" Name="vtkGhostType" format="ascii" RangeMin="0" RangeMax="1">0 0 0 0 0 0 0 0 0 0 0 0 0 0 0 0 0 0 0 0 0 0 0 0 0 0 0 0 0 0 0 0 0 0 0 0 0 0 0 0 0 0 0 0 0 0 0 0 0 0 0 0 0 0 0 0 0 0 0 0 0 0 0 0 0 0 0 0 0 0 0 0 0 0 0 0 0 0 0 0 0 0 0 0 0 0 0 0 0 0 0 0 0 0 0 0 0 0 0 0 0 0 0 0 0 0 0 0 0 0 0 0 0 0 0 0 0 0 0 0 0 0 0 0 0 0 0 0 0 0 0 0 0 0 0 0 0 0 0 0 0 0 0 0 0 0 0 0 0 0 0 0 0 0 0 0 0 0 0 0 0 0 0 0 0 0 0 0 0 0 0 0 0 0 0 0 0 0 0 0 0 0 0 0 0 0 0 0 0 0 0 0 0 0 0 0 0 0 0 0 0 0 0 0 0 0 0 0 0 0 0 0 0 0 0 0 0 0 0 0 0 0 0 0 0 0 0 0 0 0 0 0 0 0 0 0 0 0 0 0 0 0 0 0 0 0 0 0 0 0 0 0 0 0 0 0 0 0 0 0 0 0 0 0 0 0 0 0 0 0 0 0 0 0 0 0 0 0 0 0 0 0 0 0 0 0 0 0 0 0 0 0 0 0 0 0 0 0 0 0 0 0 0 0 0 0 0 0 0 0 0 0 0 0 0 0 0 0 0 0 0 0 0 0 0 0 0 0 0 0 0 0 0 0 0 0 0 0 0 0 0 0 0 0 0 0 0 0 0 0 0 0 0 0 0 0 0 0 0 0 0 0 0 0 0 0 0 0 0 0 0 0 0 0 0 0 0 0 0 0 0 0 0 0 0 0 0 0 0 0 0 0 0 0 0 0 0 0 0 0 0 0 0 0 0 0 0 0 0 0 0 0 0 0 0 0 0 0 0 0 0 0 0 0 0 0 0 0 0 0 0 0 0 0 0 0 0 0 0 0 0 0 0 0 0 0 0 0 0 0 0 0 0 0 0 0 0 0 0 0 0 0 0 0 0 0 0 0 0 0 0 0 0 0 0 0 0 0 0 0 0 0 0 0 0 0 0 0 0 0 0 0 0 0 0 0 0 0 0 0 0 0 0 0 0 0 0 0 0 0 0 0 0 0 0 0 0 0 0 0 0 0 0 0 0 0 0 0 0 0 0 0 0 0 0 0 0 0 0 0 0 0 0 0 0 0 0 0 0 0 0 0 0 0 0 0 0 0 0 0 0 0 0 0 0 0 0 0 0 0 0 0 0 0 0 0 0 0 0 0 0 0 0 0 0 0 0 0 0 0 0 0 0 0 0 0 0 0 0 0 0 0 0 0 0 0 0 0 0 0 0 0 0 0 0 0 0 0 0 0 0 0 0 0 0 0 0 0 0 0 0 0 0 0 0 0 0 0 0 0 0 0 0 0 0 0 0 0 0 0 0 0 0 0 0 0 0 0 0 0 0 0 0 0 0 0 0 0 0 0 0 0 0 0 0 0 0 0 0 0 0 0 0 0 0 0 0 0 0 0 0 0 0 0 0 0 0 0 0 0 0 0 0 0 0 0 0 0 0 0 0 0 0 0 0 0 0 0 0 0 0 0 0 0 0 0 0 0 0 0 0 0 0 0 0 0 0 0 0 0 0 0 0 0 0 0 0 0 0 0 0 0 0 0 0 0 0 0 0 0 0 0 0 0 0 0 0 0 0 0 0 0 0 0 0 0 0 0 0 0 0 0 0 0 0 0 0 0 0 0 0 0 0 0 0 0 0 0 0 0 0 0 0 0 0 0 0 0 0 0 0 0 0 0 0 0 0 0 0 0 0 0 0 0 0 0 0 0 0 0 0 0 0 0 0 0 0 0 0 0 0 0 0 0 0 0 0 0 0 0 0 0 0 0 0 0 0 0 0 0 0 0 0 0 0 0 0 0 0 0 0 0 0 0 0 0 0 0 0 0 0 0 0 0 0 0 0 0 0 0 0 0 0 0 0 0 0 0 0 0 0 0 0 0 0 0 0 0 0 0 0 0 0 0 0 0 0 0 0 0 0 0 0 0 0 0 0 0 0 0 0 0 0 0 0 0 0 0 0 0 0 0 0 0 0 0 0 0 0 0 0 0 0 0 0 0 0 0 0 0 0 0 0 0 0 0 0 0 0 0 0 0 0 0 0 0 0 0 0 0 0 0 0 0 0 0 0 0 0 0 0 0 0 0 0 0 0 0 0 0 0 0 0 0 0 0 0 0 0 0 0 0 0 0 0 0 0 0 0 0 0 0 0 0 0 0 0 0 0 0 0 0 0 0 0 0 0 0 0 0 0 0 0 0 0 0 0 0 0 0 0 0 0 0 0 0 0 0 0 0 0 0 0 0 0 0 0 0 0 0 0 0 0 0 0 0 0 0 0 0 0 0 0 0 0 0 0 0 0 0 0 0 0 0 0 0 0 0 0 0 0 0 0 0 0 0 0 0 0 0 0 0 0 0 0 0 0 0 0 0 0 0 0 0 0 0 0 0 0 0 0 0 0 0 0 0 0 0 0 0 0 0 0 0 0 0 0 0 0 0 0 0 0 0 0 0 0 0 0 0 0 0 0 0 0 0 0 0 0 0 0 0 0 0 0 0 0 0 0 0 0 0 0 0 0 0 0 0 0 0 0 0 0 0 0 0 0 0 0 0 0 0 0 0 0 0 0 0 0 0 0 0 0 0 0 0 0 0 0 0 0 0 0 0 0 0 0 0 0 0 0 0 0 0 0 0 0 0 0 0 0 0 0 0 0 0 0 0 0 0 0 0 0 0 0 0 0 0 0 0 0 0 0 0 0 0 0 0 0 0 0 0 0 0 0 0 0 0 0 0 0 0 0 0 0 0 0 0 0 0 0 0 0 0 0 0 0 0 0 0 0 0 0 0 0 0 0 0 0 0 0 0 0 0 0 0 0 0 0 0 0 0 0 0 0 0 0 0 0 0 0 0 0 0 0 0 0 0 0 0 0 0 0 0 0 0 0 0 0 0 0 0 0 0 0 0 0 0 0 0 0 0 0 0 0 0 0 0 0 0 0 0 0 0 0 0 0 0 0 0 0 0 0 0 0 0 0 0 0 0 0 0 0 0 0 0 0 0 0 0 0 0 0 0 0 0 0 0 0 0 0 0 0 0 0 0 0 0 0 0 0 0 0 0 0 0 0 0 0 0 0 0 0 0 0 0 0 0 0 0 0 0 0 0 0 0 0 0 0 0 0 0 0 0 0 0 0 0 0 0 0 0 0 0 0 0 0 0 0 0 0 0 0 0 0 0 0 0 0 0 0 0 0 0 0 0 0 0 0 0 0 0 0 0 0 0 0 0 0 0 0 0 0 0 0 0 0 0 0 0 0 0 0 0 0 0 0 0 0 0 0 0 0 0 0 0 0 0 0 0 0 0 0 0 0 0 0 0 0 0 0 0 0 0 0 0 0 0 0 0 0 0 0 0 0 0 0 0 0 0 0 0 0 0 0 0 0 0 0 0 0 0 0 0 0 0 0 0 0 0 0 0 0 0 0 0 0 0 0 0 0 0 0 0 0 0 0 0 0 0 0 0 0 0 0 0 0 0 0 0 0 0 0 0 0 0 0 0 0 0 0 0 0 0 0 0 0 0 0 0 0 0 0 0 0 0 0 0 0 0 0 0 0 0 0 0 0 0 0 0 0 0 0 0 0 0 0 0 0 0 0 0 0 0 0 0 0 0 0 0 0 0 0 0 0 0 0 0 0 0 0 0 0 0 0 0 0 0 0 0 0 0 0 0 0 0 0 0 0 0 0 0 0 0 0 0 0 0 0 0 0 0 0 0 0 0 0 0 0 0 0 0 0 0 0 0 0 0 0 0 0 0 0 0 0 0 0 0 0 0 0 0 0 0 0 0 0 0 0 0 0 0 0 0 0 0 0 0 0 0 0 0 0 0 0 0 0 0 0 0 0 0 0 0 0 0 0 0 0 0 0 0 0 0 0 0 0 0 0 0 0 0 0 0 0 0 0 0 0 0 0 0 0 0 0 0 0 0 0 0 0 0 0 0 0 0 0 0 0 0 0 0 0 0 0 0 0 0 0 0 0 0 0 0 0 0 0 0 0 0 0 0 0 0 0 0 0 0 0 0 0 0 0 0 0 0 0 0 0 0 0 0 0 0 0 0 0 0 0 0 0 0 0 0 0 0 0 0 0 0 0 0 0 0 0 0 0 0 0 0 0 0 0 0 0 0 0 0 0 0 0 0 0 0 0 0 0 0 0 0 0 0 0 0 0 0 0 0 0 0 0 0 0 0 0 0 0 0 0 0 0 0 0 0 0 0 0 0 0 0 0 0 0 0 0 0 0 0 0 0 0 0 0 0 0 0 0 0 0 0 0 0 0 0 0 0 0 0 0 0 0 0 0 0 0 0 0 0 0 0 0 0 0 0 0 0 0 0 0 0 0 0 0 0 0 0 0 0 0 0 0 0 0 0 0 0 0 0 0 0 0 0 0 0 0 0 0 0 0 0 0 0 0 0 0 0 0 0 0 0 0 0 0 0 0 0 0 0 0 0 0 0 0 0 0 0 0 0 0 0 0 0 0 0 0 0 0 0 0 0 0 0 0 0 0 0 0 0 0 0 0 0 0 0 0 0 0 0 0 0 0 0 0 0 0 0 0 0 0 0 0 0 0 0 0 0 0 0 0 0 0 0 0 0 0 0 0 0 0 0 0 0 0 0 0 0 0 0 0 0 0 0 0 0 0 0 0 0 0 0 0 0 0 0 0 0 0 0 0 0 0 0 0 0 0 0 0 0 0 0 0 0 0 0 0 0 0 0 0 0 0 0 0 0 0 0 0 0 0 0 0 0 0 0 0 0 0 0 0 0 0 0 0 0 0 0 0 0 0 0 0 0 0 0 0 0 0 0 0 0 0 0 0 0 0 0 0 0 0 0 0 0 0 0 0 0 0 0 0 0 0 0 0 0 0 0 0 0 0 0 0 0 0 0 0 0 0 0 0 0 0 0 0 0 0 0 0 0 0 0 0 0 0 0 0 0 0 0 0 0 0 0 0 0 0 0 0 0 0 0 0 0 0 0 0 0 0 0 0 0 0 0 0 0 0 0 0 0 0 0 0 0 0 0 0 0 0 0 0 0 0 0 0 0 0 0 0 0 0 0 0 0 0 0 0 0 0 0 0 0 0 0 0 0 0 0 0 0 0 0 0 0 0 0 0 0 0 0 0 0 0 0 0 0 0 0 0 0 0 0 0 0 0 0 0 0 0 0 0 0 0 0 0 0 0 0 0 0 0 0 0 0 0 0 0 0 0 0 0 0 0 0 0 0 0 0 0 0 0 0 0 0 0 0 0 0 0 0 0 0 0 0 0 0 0 0 0 0 0 0 0 0 0 0 0 0 0 0 0 0 0 0 0 0 0 0 0 0 0 0 0 0 0 0 0 0 0 0 0 0 0 0 0 0 0 0 0 0 0 0 0 0 0 0 0 0 0 0 0 0 0 0 0 0 0 0 0 0 0 0 0 0 0 0 0 0 0 0 0 0 0 0 0 0 0 0 0 0 0 0 0 0 0 0 0 0 0 0 0 0 0 0 0 0 0 0 0 0 0 0 0 0 0 0 0 0 0 0 0 0 0 0 0 0 0 0 0 0 0 0 0 0 0 0 0 0 0 0 0 0 0 0 0 0 0 0 0 0 0 0 0 0 0 0 0 0 0 0 0 0 0 0 0 0 0 0 0 0 0 0 0 0 0 0 0 0 0 0 0 0 0 0 0 0 0 0 0 0 0 0 0 0 0 0 0 0 0 0 0 0 0 0 0 0 0 0 0 0 0 0 0 0 0 0 0 0 0 0 0 0 0 0 0 0 0 0 0 0 0 0 0 0 0 0 0 0 0 0 0 0 0 0 0 0 0 0 0 0 0 0 0 0 0 0 0 0 0 0 0 0 0 0 0 0 0 0 0 0 0 0 0 0 0 0 0 0 0 0 0 0 0 0 0 0 0 0 0 0 0 0 0 0 0 0 0 0 0 0 0 0 </DataArray>
        <DataArray type="Int64" IdType="1" Name="vtkOriginalCellIds" format="ascii" RangeMin="0" RangeMax="2699">0 1 2 3 4 5 6 7 8 9 10 11 12 13 14 15 16 17 18 19 20 21 22 23 24 25 26 27 28 29 30 31 32 33 34 35 36 37 38 39 40 41 42 43 44 45 46 47 48 49 50 51 52 53 54 55 56 57 58 59 60 61 62 63 64 65 66 67 68 69 70 71 72 73 74 75 76 77 78 79 80 81 82 83 84 85 86 87 88 89 90 91 92 93 94 95 96 97 98 99 100 101 102 103 104 105 106 107 108 109 110 111 112 113 114 115 116 117 118 119 120 121 122 123 124 125 126 127 128 129 130 131 132 133 134 135 136 137 138 139 140 141 142 143 144 145 146 147 148 149 150 151 152 153 154 155 156 157 158 159 160 161 162 163 164 165 166 167 168 169 170 171 172 173 174 175 176 177 178 179 180 181 182 183 184 185 186 187 188 189 190 191 192 193 194 195 196 197 198 199 200 201 202 203 204 205 206 207 208 209 210 211 212 213 214 215 216 217 218 219 220 221 222 223 224 225 226 227 228 229 230 231 232 233 234 235 236 237 238 239 240 241 242 243 244 245 246 247 248 249 250 251 252 253 254 255 256 257 258 259 260 261 262 263 264 265 266 267 268 269 270 271 272 273 274 275 276 277 278 279 280 281 282 283 284 285 286 287 288 289 290 291 292 293 294 295 296 297 298 299 300 301 302 303 304 305 306 307 308 309 310 311 312 313 314 315 316 317 318 319 320 321 322 323 324 325 326 327 328 329 330 331 332 333 334 335 336 337 338 339 340 341 342 343 344 345 346 347 348 349 350 351 352 353 354 355 356 357 358 359 360 361 362 363 364 365 366 367 368 369 370 371 372 373 374 375 376 377 378 379 380 381 382 383 384 385 386 387 388 389 390 391 392 393 394 395 396 397 398 399 400 401 402 403 404 405 406 407 408 409 410 411 412 413 414 415 416 417 418 419 420 421 422 423 424 425 426 427 428 429 430 431 432 433 434 435 436 437 438 439 440 441 442 443 444 445 446 447 448 449 450 451 452 453 454 455 456 457 458 459 460 461 462 463 464 465 466 467 468 469 470 471 472 473 474 475 476 477 478 479 480 481 482 483 484 485 486 487 488 489 490 491 492 493 494 495 496 497 498 499 500 501 502 503 504 505 506 507 508 509 510 511 512 513 514 515 516 517 518 519 520 521 522 523 524 525 526 527 528 529 530 531 532 533 534 535 536 537 538 539 540 541 542 543 544 545 546 547 548 549 550 551 552 553 554 555 556 557 558 559 560 561 562 563 564 565 566 567 568 569 570 571 572 573 574 575 576 577 578 579 580 581 582 583 584 585 586 587 588 589 590 591 592 593 594 595 596 597 598 599 600 601 602 603 604 605 606 607 608 609 610 611 612 613 614 615 616 617 618 619 620 621 622 623 624 625 626 627 628 629 630 631 632 633 634 635 636 637 638 639 640 641 642 643 644 645 646 647 648 649 650 651 652 653 654 655 656 657 658 659 660 661 662 663 664 665 666 667 668 669 670 671 672 673 674 675 676 677 678 679 680 681 682 683 684 685 686 687 688 689 690 691 692 693 694 695 696 697 698 699 700 701 702 703 704 705 706 707 708 709 710 711 712 713 714 715 716 717 718 719 720 721 722 723 724 725 726 727 728 729 730 731 732 733 734 735 736 737 738 739 740 741 742 743 744 745 746 747 748 749 750 751 752 753 754 755 756 757 758 759 760 761 762 763 764 765 766 767 768 769 770 771 772 773 774 775 776 777 778 779 780 781 782 783 784 785 786 787 788 789 790 791 792 793 794 795 796 797 798 799 800 801 802 803 804 805 806 807 808 809 810 811 812 813 814 815 816 817 818 819 820 821 822 823 824 825 826 827 828 829 830 831 832 833 834 835 836 837 838 839 840 841 842 843 844 845 846 847 848 849 850 851 852 853 854 855 856 857 858 859 860 861 862 863 864 865 866 867 868 869 870 871 872 873 874 875 876 877 878 879 880 881 882 883 884 885 886 887 888 889 890 891 892 893 894 895 896 897 898 899 900 901 902 903 904 905 906 907 908 909 910 911 912 913 914 915 916 917 918 919 920 921 922 923 924 925 926 927 928 929 930 931 932 933 934 935 936 937 938 939 940 941 942 943 944 945 946 947 948 949 950 951 952 953 954 955 956 957 958 959 960 961 962 963 964 965 966 967 968 969 970 971 972 973 974 975 976 977 978 979 980 981 982 983 984 985 986 987 988 989 990 991 992 993 994 995 996 997 998 999 1000 1001 1002 1003 1004 1005 1006 1007 1008 1009 1010 1011 1012 1013 1014 1015 1016 1017 1018 1019 1020 1021 1022 1023 1024 1025 1026 1027 1028 1029 1030 1031 1032 1033 1034 1035 1036 1037 1038 1039 1040 1041 1042 1043 1044 1045 1046 1047 1048 1049 1050 1051 1052 1053 1054 1055 1056 1057 1058 1059 1060 1061 1062 1063 1064 1065 1066 1067 1068 1069 1070 1071 1072 1073 1074 1075 1076 1077 1078 1079 1080 1081 1082 1083 1084 1085 1086 1087 1088 1089 1090 1091 1092 1093 1094 1095 1096 1097 1098 1099 1100 1101 1102 1103 1104 1105 1106 1107 1108 1109 1110 1111 1112 1113 1114 1115 1116 1117 1118 1119 1120 1121 1122 1123 1124 1125 1126 1127 1128 1129 1130 1131 1132 1133 1134 1135 1136 1137 1138 1139 1140 1141 1142 1143 1144 1145 1146 1147 1148 1149 1150 1151 1152 1153 1154 1155 1156 1157 1158 1159 1160 1161 1162 1163 1164 1165 1166 1167 1168 1169 1170 1171 1172 1173 1174 1175 1176 1177 1178 1179 1180 1181 1182 1183 1184 1185 1186 1187 1188 1189 1190 1191 1192 1193 1194 1195 1196 1197 1198 1199 1200 1201 1202 1203 1204 1205 1206 1207 1208 1209 1210 1211 1212 1213 1214 1215 1216 1217 1218 1219 1220 1221 1222 1223 1224 1225 1226 1227 1228 1229 1230 1231 1232 1233 1234 1235 1236 1237 1238 1239 1240 1241 1242 1243 1244 1245 1246 1247 1248 1249 1250 1251 1252 1253 1254 1255 1256 1257 1258 1259 1260 1261 1262 1263 1264 1265 1266 1267 1268 1269 1270 1271 1272 1273 1274 1275 1276 1277 1278 1279 1280 1281 1282 1283 1284 1285 1286 1287 1288 1289 1290 1291 1292 1293 1294 1295 1296 1297 1298 1299 1300 1301 1302 1303 1304 1305 1306 1307 1308 1309 1310 1311 1312 1313 1314 1315 1316 1317 1318 1319 1320 1321 1322 1323 1324 1325 1326 1327 1328 1329 1330 1331 1332 1333 1334 1335 1336 1337 1338 1339 1340 1341 1342 1343 1344 1345 1346 1347 1348 1349 1350 1351 1352 1353 1354 1355 1356 1357 1358 1359 1360 1361 1362 1363 1364 1365 1366 1367 1368 1369 1370 1371 1372 1373 1374 1375 1376 1377 1378 1379 1380 1381 1382 1383 1384 1385 1386 1387 1388 1389 1390 1391 1392 1393 1394 1395 1396 1397 1398 1399 1400 1401 1402 1403 1404 1405 1406 1407 1408 1409 1410 1411 1412 1413 1414 1415 1416 1417 1418 1419 1420 1421 1422 1423 1424 1425 1426 1427 1428 1429 1430 1431 1432 1433 1434 1435 1436 1437 1438 1439 1440 1441 1442 1443 1444 1445 1446 1447 1448 1449 1450 1451 1452 1453 1454 1455 1456 1457 1458 1459 1460 1461 1462 1463 1464 1465 1466 1467 1468 1469 1470 1471 1472 1473 1474 1475 1476 1477 1478 1479 1480 1481 1482 1483 1484 1485 1486 1487 1488 1489 1490 1491 1492 1493 1494 1495 1496 1497 1498 1499 1500 1501 1502 1503 1504 1505 1506 1507 1508 1509 1510 1511 1512 1513 1514 1515 1516 1517 1518 1519 1520 1521 1522 1523 1524 1525 1526 1527 1528 1529 1530 1531 1532 1533 1534 1535 1536 1537 1538 1539 1540 1541 1542 1543 1544 1545 1546 1547 1548 1549 1550 1551 1552 1553 1554 1555 1556 1557 1558 1559 1560 1561 1562 1563 1564 1565 1566 1567 1568 1569 1570 1571 1572 1573 1574 1575 1576 1577 1578 1579 1580 1581 1582 1583 1584 1585 1586 1587 1588 1589 1590 1591 1592 1593 1594 1595 1596 1597 1598 1599 1600 1601 1602 1603 1604 1605 1606 1607 1608 1609 1610 1611 1612 1613 1614 1615 1616 1617 1618 1619 1620 1621 1622 1623 1624 1625 1626 1627 1628 1629 1630 1631 1632 1633 1634 1635 1636 1637 1638 1639 1640 1641 1642 1643 1644 1645 1646 1647 1648 1649 1650 1651 1652 1653 1654 1655 1656 1657 1658 1659 1660 1661 1662 1663 1664 1665 1666 1667 1668 1669 1670 1671 1672 1673 1674 1675 1676 1677 1678 1679 1680 1681 1682 1683 1684 1685 1686 1687 1688 1689 1690 1691 1692 1693 1694 1695 1696 1697 1698 1699 1700 1701 1702 1703 1704 1705 1706 1707 1708 1709 1710 1711 1712 1713 1714 1715 1716 1717 1718 1719 1720 1721 1722 1723 1724 1725 1726 1727 1728 1729 1730 1731 1732 1733 1734 1735 1736 1737 1738 1739 1740 1741 1742 1743 1744 1745 1746 1747 1748 1749 1750 1751 1752 1753 1754 1755 1756 1757 1758 1759 1760 1761 1762 1763 1764 1765 1766 1767 1768 1769 1770 1771 1772 1773 1774 1775 1776 1777 1778 1779 1780 1781 1782 1783 1784 1785 1786 1787 1788 1789 1790 1791 1792 1793 1794 1795 1796 1797 1798 1799 1800 1801 1802 1803 1804 1805 1806 1807 1808 1809 1810 1811 1812 1813 1814 1815 1816 1817 1818 1819 1820 1821 1822 1823 1824 1825 1826 1827 1828 1829 1830 1831 1832 1833 1834 1835 1836 1837 1838 1839 1840 1841 1842 1843 1844 1845 1846 1847 1848 1849 1850 1851 1852 1853 1854 1855 1856 1857 1858 1859 1860 1861 1862 1863 1864 1865 1866 1867 1868 1869 1870 1871 1872 1873 1874 1875 1876 1877 1878 1879 1880 1881 1882 1883 1884 1885 1886 1887 1888 1889 1890 1891 1892 1893 1894 1895 1896 1897 1898 1899 1900 1901 1902 1903 1904 1905 1906 1907 1908 1909 1910 1911 1912 1913 1914 1915 1916 1917 1918 1919 1920 1921 1922 1923 1924 1925 1926 1927 1928 1929 1930 1931 1932 1933 1934 1935 1936 1937 1938 1939 1940 1941 1942 1943 1944 1945 1946 1947 1948 1949 1950 1951 1952 1953 1954 1955 1956 1957 1958 1959 1960 1961 1962 1963 1964 1965 1966 1967 1968 1969 1970 1971 1972 1973 1974 1975 1976 1977 1978 1979 1980 1981 1982 1983 1984 1985 1986 1987 1988 1989 1990 1991 1992 1993 1994 1995 1996 1997 1998 1999 2000 2001 2002 2003 2004 2005 2006 2007 2008 2009 2010 2011 2012 2013 2014 2015 2016 2017 2018 2019 2020 2021 2022 2023 2024 2025 2026 2027 2028 2029 2030 2031 2032 2033 2034 2035 2036 2037 2038 2039 2040 2041 2042 2043 2044 2045 2046 2047 2048 2049 2050 2051 2052 2053 2054 2055 2056 2057 2058 2059 2060 2061 2062 2063 2064 2065 2066 2067 2068 2069 2070 2071 2072 2073 2074 2075 2076 2077 2078 2079 2080 2081 2082 2083 2084 2085 2086 2087 2088 2089 2090 2091 2092 2093 2094 2095 2096 2097 2098 2099 2100 2101 2102 2103 2104 2105 2106 2107 2108 2109 2110 2111 2112 2113 2114 2115 2116 2117 2118 2119 2120 2121 2122 2123 2124 2125 2126 2127 2128 2129 2130 2131 2132 2133 2134 2135 2136 2137 2138 2139 2140 2141 2142 2143 2144 2145 2146 2147 2148 2149 2150 2151 2152 2153 2154 2155 2156 2157 2158 2159 2160 2161 2162 2163 2164 2165 2166 2167 2168 2169 2170 2171 2172 2173 2174 2175 2176 2177 2178 2179 2180 2181 2182 2183 2184 2185 2186 2187 2188 2189 2190 2191 2192 2193 2194 2195 2196 2197 2198 2199 2200 2201 2202 2203 2204 2205 2206 2207 2208 2209 2210 2211 2212 2213 2214 2215 2216 2217 2218 2219 2220 2221 2222 2223 2224 2225 2226 2227 2228 2229 2230 2231 2232 2233 2234 2235 2236 2237 2238 2239 2240 2241 2242 2243 2244 2245 2246 2247 2248 2249 2250 2251 2252 2253 2254 2255 2256 2257 2258 2259 2260 2261 2262 2263 2264 2265 2266 2267 2268 2269 2270 2271 2272 2273 2274 2275 2276 2277 2278 2279 2280 2281 2282 2283 2284 2285 2286 2287 2288 2289 2290 2291 2292 2293 2294 2295 2296 2297 2298 2299 2300 2301 2302 2303 2304 2305 2306 2307 2308 2309 2310 2311 2312 2313 2314 2315 2316 2317 2318 2319 2320 2321 2322 2323 2324 2325 2326 2327 2328 2329 2330 2331 2332 2333 2334 2335 2336 2337 2338 2339 2340 2341 2342 2343 2344 2345 2346 2347 2348 2349 2350 2351 2352 2353 2354 2355 2356 2357 2358 2359 2360 2361 2362 2363 2364 2365 2366 2367 2368 2369 2370 2371 2372 2373 2374 2375 2376 2377 2378 2379 2380 2381 2382 2383 2384 2385 2386 2387 2388 2389 2390 2391 2392 2393 2394 2395 2396 2397 2398 2399 2400 2401 2402 2403 2404 2405 2406 2407 2408 2409 2410 2411 2412 2413 2414 2415 2416 2417 2418 2419 2420 2421 2422 2423 2424 2425 2426 2427 2428 2429 2430 2431 2432 2433 2434 2435 2436 2437 2438 2439 2440 2441 2442 2443 2444 2445 2446 2447 2448 2449 2450 2451 2452 2453 2454 2455 2456 2457 2458 2459 2460 2461 2462 2463 2464 2465 2466 2467 2468 2469 2470 2471 2472 2473 2474 2475 2476 2477 2478 2479 2480 2481 2482 2483 2484 2485 2486 2487 2488 2489 2490 2491 2492 2493 2494 2495 2496 2497 2498 2499 2500 2501 2502 2503 2504 2505 2506 2507 2508 2509 2510 2511 2512 2513 2514 2515 2516 2517 2518 2519 2520 2521 2522 2523 2524 2525 2526 2527 2528 2529 2530 2531 2532 2533 2534 2535 2536 2537 2538 2539 2540 2541 2542 2543 2544 2545 2546 2547 2548 2549 2550 2551 2552 2553 2554 2555 2556 2557 2558 2559 2560 2561 2562 2563 2564 2565 2566 2567 2568 2569 2570 2571 2572 2573 2574 2575 2576 2577 2578 2579 2580 2581 2582 2583 2584 2585 2586 2587 2588 2589 2590 2591 2592 2593 2594 2595 2596 2597 2598 2599 2600 2601 2602 2603 2604 2605 2606 2607 2608 2609 2610 2611 2612 2613 2614 2615 2616 2617 2618 2619 2620 2621 2622 2623 2624 2625 2626 2627 2628 2629 2630 2631 2632 2633 2634 2635 2636 2637 2638 2639 2640 2641 2642 2643 2644 2645 2646 2647 2648 2649 2650 2651 2652 2653 2654 2655 2656 2657 2658 2659 2660 2661 2662 2663 2664 2665 2666 2667 2668 2669 2670 2671 2672 2673 2674 2675 2676 2677 2678 2679 2680 2681 2682 2683 2684 2685 2686 2687 2688 2689 2690 2691 2692 2693 2694 2695 2696 2697 2698 2699 </DataArray>
      </CellData>
      <PointData Vectors="f" Scalars="Stress von Mises">
        <DataArray type="Int64" IdType="1" Name="vtkOriginalPointIds" format="ascii" RangeMin="0" RangeMax="4948">0 1 2 3 4 5 6 7 8 9 10 11 12 13 14 15 16 17 18 19 20 21 22 23 24 25 26 27 28 29 30 31 32 33 34 35 36 37 38 39 40 41 42 43 44 45 46 47 48 49 50 51 52 53 54 55 56 57 58 59 60 61 62 63 64 65 66 67 68 69 70 71 72 73 74 75 76 77 78 79 80 81 82 83 84 85 86 87 88 89 90 91 92 93 94 95 96 97 98 99 100 101 102 103 104 105 106 107 108 109 110 111 112 113 114 115 116 117 118 119 120 121 122 123 124 125 126 127 128 129 130 131 132 133 134 135 136 137 138 139 140 141 142 143 144 145 146 147 148 149 150 151 152 153 154 155 156 157 158 159 160 161 162 163 164 165 166 167 168 169 170 171 172 173 174 175 176 177 178 179 180 181 182 183 184 185 186 187 188 189 190 191 192 193 194 195 196 197 198 199 200 201 202 203 204 205 206 207 208 209 210 211 212 213 214 215 216 217 218 219 220 221 222 223 224 225 226 227 228 229 230 231 232 233 234 235 236 237 238 239 240 241 242 243 244 245 246 247 248 249 250 251 252 253 254 255 256 257 258 259 260 261 262 263 264 265 266 267 268 269 270 271 272 273 274 275 276 277 278 279 280 281 282 283 284 285 286 287 288 289 290 291 292 293 294 295 296 297 298 299 300 301 302 303 304 305 306 307 308 309 310 311 312 313 314 315 316 317 318 319 320 321 322 323 324 325 326 327 328 329 330 331 332 333 334 335 336 337 338 339 340 341 342 343 344 345 346 347 348 349 350 351 352 353 354 355 356 357 358 359 360 361 362 363 364 365 366 367 368 369 370 371 372 373 374 375 376 377 378 379 380 381 382 383 384 385 386 387 388 389 390 391 392 393 394 395 396 397 398 399 400 401 402 403 404 405 406 407 408 409 410 411 412 413 414 415 416 417 418 419 420 421 422 423 424 425 426 427 428 429 430 431 432 433 434 435 436 437 438 439 440 441 442 443 444 445 446 447 448 449 450 451 452 453 454 455 456 457 458 459 460 461 462 463 464 465 466 467 468 469 470 471 472 473 474 475 476 477 478 479 480 481 482 483 484 485 486 487 488 489 490 491 492 493 494 495 496 497 498 499 500 501 502 503 504 505 506 507 508 509 510 511 512 513 514 515 516 517 518 519 520 521 522 523 524 525 526 527 528 529 530 531 532 533 534 535 536 537 538 539 540 541 542 543 544 545 546 547 548 549 550 551 552 553 554 555 556 557 558 559 560 561 562 563 564 565 566 567 568 569 570 571 572 573 574 575 576 577 578 579 580 581 582 583 584 585 586 587 588 589 590 591 592 593 594 595 596 597 598 599 600 601 602 603 604 605 606 607 608 609 610 611 612 613 614 615 616 617 618 619 620 621 622 623 624 625 626 627 628 629 630 631 632 633 634 635 636 637 638 639 640 641 642 643 644 645 646 647 648 649 650 651 652 653 654 655 656 657 658 659 660 661 662 663 664 665 666 667 668 669 670 671 672 673 674 675 676 677 678 679 680 681 682 683 684 685 686 687 688 689 690 691 692 693 694 695 696 697 698 699 700 701 702 703 704 705 706 707 708 709 710 711 712 713 714 715 716 717 718 719 720 721 722 723 724 725 726 727 728 729 730 731 732 733 734 735 736 737 738 739 740 741 742 743 744 745 746 747 748 749 750 751 752 753 754 755 756 757 758 759 760 761 762 763 764 765 766 767 768 769 770 771 772 773 774 775 776 777 778 779 780 781 782 783 784 785 786 787 788 789 790 791 792 793 794 795 796 797 798 799 800 801 802 803 804 805 806 807 808 809 810 811 812 813 814 815 816 817 818 819 820 821 822 823 824 825 826 827 828 829 830 831 832 833 834 835 836 837 838 839 840 841 842 843 844 845 846 847 848 849 850 851 852 853 854 855 856 857 858 859 860 861 862 863 864 865 866 867 868 869 870 871 872 873 874 875 876 877 878 879 880 881 882 883 884 885 886 887 888 889 890 891 892 893 894 895 896 897 898 899 900 901 902 903 904 905 906 907 908 909 910 911 912 913 914 915 916 917 918 919 920 921 922 923 924 925 926 927 928 929 930 931 932 933 934 935 936 937 938 939 940 941 942 943 944 945 946 947 948 949 950 951 952 953 954 955 956 957 958 959 960 961 962 963 964 965 966 967 968 969 970 971 972 973 974 975 976 977 978 979 980 981 982 983 984 985 986 987 988 989 990 991 992 993 994 995 996 997 998 999 1000 1001 1002 1003 1004 1005 1006 1007 1008 1009 1010 1011 1012 1013 1014 1015 1016 1017 1018 1019 1020 1021 1022 1023 1024 1025 1026 1027 1028 1029 1030 1031 1032 1033 1034 1035 1036 1037 1038 1039 1040 1041 1042 1043 1044 1045 1046 1047 1048 1049 1050 1051 1052 1053 1054 1055 1056 1057 1058 1059 1060 1061 1062 1063 1064 1065 1066 1067 1068 1069 1070 1071 1072 1073 1074 1075 1076 1077 1078 1079 1080 1081 1082 1083 1084 1085 1086 1087 1088 1089 1090 1091 1092 1093 1094 1095 1096 1097 1098 1099 1100 1101 1102 1103 1104 1105 1106 1107 1108 1109 1110 1111 1112 1113 1114 1115 1116 1117 1118 1119 1120 1121 1122 1123 1124 1125 1126 1127 1128 1129 1130 1131 1132 1133 1134 1135 1136 1137 1138 1139 1140 1141 1142 1143 1144 1145 1146 1147 1148 1149 1150 1151 1152 1153 1154 1155 1156 1157 1158 1159 1160 1161 1162 1163 1164 1165 1166 1167 1168 1169 1170 1171 1172 1173 1174 1175 1176 1177 1178 1179 1180 1181 1182 1183 1184 1185 1186 1187 1188 1189 1190 1191 1192 1193 1194 1195 1196 1197 1198 1199 1200 1201 1202 1203 1204 1205 1206 1207 1208 1209 1210 1211 1212 1213 1214 1215 1216 1217 1218 1219 1220 1221 1222 1223 1224 1225 1226 1227 1228 1229 1230 1231 1232 1233 1234 1235 1236 1237 1238 1239 1240 1241 1242 1243 1244 1245 1246 1247 1248 1249 1250 1251 1252 1253 1254 1255 1256 1257 1258 1259 1260 1261 1262 1263 1264 1265 1266 1267 1268 1269 1270 1271 1272 1273 1274 1275 1276 1277 1278 1279 1280 1281 1282 1283 1284 1285 1286 1287 1288 1289 1290 1291 1292 1293 1294 1295 1296 1297 1298 1299 1300 1301 1302 1303 1304 1305 1306 1307 1308 1309 1310 1311 1312 1313 1314 1315 1316 1317 1318 1319 1320 1321 1322 1323 1324 1325 1326 1327 1328 1329 1330 1331 1332 1333 1334 1335 1336 1337 1338 1339 1340 1341 1342 1343 1344 1345 1346 1347 1348 1349 1350 1351 1352 1353 1354 1355 1356 1357 1358 1359 1360 1361 1362 1363 1364 1365 1366 1367 1368 1369 1370 1371 1372 1373 1374 1375 1376 1377 1378 1379 1380 1381 1382 1383 1384 1385 1386 1387 1388 1389 1390 1391 1392 1393 1394 1395 1396 1397 1398 1399 1400 1401 1402 1403 1404 1405 1406 1407 1408 1409 1410 1411 1412 1413 1414 1415 1416 1417 1418 1419 1420 1421 1422 1423 1424 1425 1426 1427 1428 1429 1430 1431 1432 1433 1434 1435 1436 1437 1438 1439 1440 1441 1442 1443 1444 1445 1446 1447 1448 1449 1450 1451 1452 1453 1454 1455 1456 1457 1458 1459 1460 1461 1462 1463 1464 1465 1466 1467 1468 1469 1470 1471 1472 1473 1474 1475 1476 1477 1478 1479 1480 1481 1482 1483 1484 1485 1486 1487 1488 1489 1490 1491 1492 1493 1494 1495 1496 1497 1498 1499 1500 1501 1502 1503 1504 1505 1506 1507 1508 1509 1510 1511 1512 1513 1514 1515 1516 1517 1518 1519 1520 1521 1522 1523 1524 1525 1526 1527 1528 1529 1530 1531 1532 1533 1534 1535 1536 1537 1538 1539 1540 1541 1542 1543 1544 1545 1546 1547 1548 1549 1550 1551 1552 1553 1554 1555 1556 1557 1558 1559 1560 1561 1562 1563 1564 1565 1566 1567 1568 1569 1570 1571 1572 1573 1574 1575 1576 1577 1578 1579 1580 1581 1582 1583 1584 1585 1586 1587 1588 1589 1590 1591 1592 1593 1594 1595 1596 1597 1598 1599 1600 1601 1602 1603 1604 1605 1606 1607 1608 1609 1610 1611 1612 1613 1614 1615 1616 1617 1618 1619 1620 1621 1622 1623 1624 1625 1626 1627 1628 1629 1630 1631 1632 1633 1634 1635 1636 1637 1638 1639 1640 1641 1642 1643 1644 1645 1646 1647 1648 1649 1650 1651 1652 1653 1654 1655 1656 1657 1658 1659 1660 1661 1662 1663 1664 1665 1666 1667 1668 1669 1670 1671 1672 1673 1674 1675 1676 1677 1678 1679 1680 1681 1682 1683 1684 1685 1686 1687 1688 1689 1690 1691 1692 1693 1694 1695 1696 1697 1698 1699 1700 1701 1702 1703 1704 1705 1706 1707 1708 1709 1710 1711 1712 1713 1714 1715 1716 1717 1718 1719 1720 1721 1722 1723 1724 1725 1726 1727 1728 1729 1730 1731 1732 1733 1734 1735 1736 1737 1738 1739 1740 1741 1742 1743 1744 1745 1746 1747 1748 1749 1750 1751 1752 1753 1754 1755 1756 1757 1758 1759 1760 1761 1762 1763 1764 1765 1766 1767 1768 1769 1770 1771 1772 1773 1774 1775 1776 1777 1778 1779 1780 1781 1782 1783 1784 1785 1786 1787 1788 1789 1790 1791 1792 1793 1794 1795 1796 1797 1798 1799 1800 1801 1802 1803 1804 1805 1806 1807 1808 1809 1810 1811 1812 1813 1814 1815 1816 1817 1818 1819 1820 1821 1822 1823 1824 1825 1826 1827 1828 1829 1830 1831 1832 1833 1834 1835 1836 1837 1838 1839 1840 1841 1842 1843 1844 1845 1846 1847 1848 1849 1850 1851 1852 1853 1854 1855 1856 1857 1858 1859 1860 1861 1862 1863 1864 1865 1866 1867 1868 1869 1870 1871 1872 1873 1874 1875 1876 1877 1878 1879 1880 1881 1882 1883 1884 1885 1886 1887 1888 1889 1890 1891 1892 1893 1894 1895 1896 1897 1898 1899 1900 1901 1902 1903 1904 1905 1906 1907 1908 1909 1910 1911 1912 1913 1914 1915 1916 1917 1918 1919 1920 1921 1922 1923 1924 1925 1926 1927 1928 1929 1930 1931 1932 1933 1934 1935 1936 1937 1938 1939 1940 1941 1942 1943 1944 1945 1946 1947 1948 1949 1950 1951 1952 1953 1954 1955 1956 1957 1958 1959 1960 1961 1962 1963 1964 1965 1966 1967 1968 1969 1970 1971 1972 1973 1974 1975 1976 1977 1978 1979 1980 1981 1982 1983 1984 1985 1986 1987 1988 1989 1990 1991 1992 1993 1994 1995 1996 1997 1998 1999 2000 2001 2002 2003 2004 2005 2006 2007 2008 2009 2010 2011 2012 2013 2014 2015 2016 2017 2018 2019 2020 2021 2022 2023 2024 2025 2026 2027 2028 2029 2030 2031 2032 2033 2034 2035 2036 2037 2038 2039 2040 2041 2042 2043 2044 2045 2046 2047 2048 2049 2050 2051 2052 2053 2054 2055 2056 2057 2058 2059 2060 2061 2062 2063 2064 2065 2066 2067 2068 2069 2070 2071 2072 2073 2074 2075 2076 2077 2078 2079 2080 2081 2082 2083 2084 2085 2086 2087 2088 2089 2090 2091 2092 2093 2094 2095 2096 2097 2098 2099 2100 2101 2102 2103 2104 2105 2106 2107 2108 2109 2110 2111 2112 2113 2114 2115 2116 2117 2118 2119 2120 2121 2122 2123 2124 2125 2126 2127 2128 2129 2130 2131 2132 2133 2134 2135 2136 2137 2138 2139 2140 2141 2142 2143 2144 2145 2146 2147 2148 2149 2150 2151 2152 2153 2154 2155 2156 2157 2158 2159 2160 2161 2162 2163 2164 2165 2166 2167 2168 2169 2170 2171 2172 2173 2174 2175 2176 2177 2178 2179 2180 2181 2182 2183 2184 2185 2186 2187 2188 2189 2190 2191 2192 2193 2194 2195 2196 2197 2198 2199 2200 2201 2202 2203 2204 2205 2206 2207 2208 2209 2210 2211 2212 2213 2214 2215 2216 2217 2218 2219 2220 2221 2222 2223 2224 2225 2226 2227 2228 2229 2230 2231 2232 2233 2234 2235 2236 2237 2238 2239 2240 2241 2242 2243 2244 2245 2246 2247 2248 2249 2250 2251 2252 2253 2254 2255 2256 2257 2258 2259 2260 2261 2262 2263 2264 2265 2266 2267 2268 2269 2270 2271 2272 2273 2274 2275 2276 2277 2278 2279 2280 2281 2282 2283 2284 2285 2286 2287 2288 2289 2290 2291 2292 2293 2294 2295 2296 2297 2298 2299 2300 2301 2302 2303 2304 2305 2306 2307 2308 2309 2310 2311 2312 2313 2314 2315 2316 2317 2318 2319 2320 2321 2322 2323 2324 2325 2326 2327 2328 2329 2330 2331 2332 2333 2334 2335 2336 2337 2338 2339 2340 2341 2342 2343 2344 2345 2346 2347 2348 2349 2350 2351 2352 2353 2354 2355 2356 2357 2358 2359 2360 2361 2362 2363 2364 2365 2366 2367 2368 2369 2370 2371 2372 2373 2374 2375 2376 2377 2378 2379 2380 2381 2382 2383 2384 2385 2386 2387 2388 2389 2390 2391 2392 2393 2394 2395 2396 2397 2398 2399 2400 2401 2402 2403 2404 2405 2406 2407 2408 2409 2410 2411 2412 2413 2414 2415 2416 2417 2418 2419 2420 2421 2422 2423 2424 2425 2426 2427 2428 2429 2430 2431 2432 2433 2434 2435 2436 2437 2438 2439 2440 2441 2442 2443 2444 2445 2446 2447 2448 2449 2450 2451 2452 2453 2454 2455 2456 2457 2458 2459 2460 2461 2462 2463 2464 2465 2466 2467 2468 2469 2470 2471 2472 2473 2474 2475 2476 2477 2478 2479 2480 2481 2482 2483 2484 2485 2486 2487 2488 2489 2490 2491 2492 2493 2494 2495 2496 2497 2498 2499 2500 2501 2502 2503 2504 2505 2506 2507 2508 2509 2510 2511 2512 2513 2514 2515 2516 2517 2518 2519 2520 2521 2522 2523 2524 2525 2526 2527 2528 2529 2530 2531 2532 2533 2534 2535 2536 2537 2538 2539 2540 2541 2542 2543 2544 2545 2546 2547 2548 2549 2550 2551 2552 2553 2554 2555 2556 2557 2558 2559 2560 2561 2562 2563 2564 2565 2566 2567 2568 2569 2570 2571 2572 2573 2574 2575 2576 2577 2578 2579 2580 2581 2582 2583 2584 2585 2586 2587 2588 2589 2590 2591 2592 2593 2594 2595 2596 2597 2598 2599 2600 2601 2602 2603 2604 2605 2606 2607 2608 2609 2610 2611 2612 2613 2614 2615 2616 2617 2618 2619 2620 2621 2622 2623 2624 2625 2626 2627 2628 2629 2630 2631 2632 2633 2634 2635 2636 2637 2638 2639 2640 2641 2642 2643 2644 2645 2646 2647 2648 2649 2650 2651 2652 2653 2654 2655 2656 2657 2658 2659 2660 2661 2662 2663 2664 2665 2666 2667 2668 2669 2670 2671 2672 2673 2674 2675 2676 2677 2678 2679 2680 2681 2682 2683 2684 2685 2686 2687 2688 2689 2690 2691 2692 2693 2694 2695 2696 2697 2698 2699 2700 2701 2702 2703 2704 2705 2706 2707 2708 2709 2710 2711 2712 2713 2714 2715 2716 2717 2718 2719 2720 2721 2722 2723 2724 2725 2726 2727 2728 2729 2730 2731 2732 2733 2734 2735 2736 2737 2738 2739 2740 2741 2742 2743 2744 2745 2746 2747 2748 2749 2750 2751 2752 2753 2754 2755 2756 2757 2758 2759 2760 2761 2762 2763 2764 2765 2766 2767 2768 2769 2770 2771 2772 2773 2774 2775 2776 2777 2778 2779 2780 2781 2782 2783 2784 2785 2786 2787 2788 2789 2790 2791 2792 2793 2794 2795 2796 2797 2798 2799 2800 2801 2802 2803 2804 2805 2806 2807 2808 2809 2810 2811 2812 2813 2814 2815 2816 2817 2818 2819 2820 2821 2822 2823 2824 2825 2826 2827 2828 2829 2830 2831 2832 2833 2834 2835 2836 2837 2838 2839 2840 2841 2842 2843 2844 2845 2846 2847 2848 2849 2850 2851 2852 2853 2854 2855 2856 2857 2858 2859 2860 2861 2862 2863 2864 2865 2866 2867 2868 2869 2870 2871 2872 2873 2874 2875 2876 2877 2878 2879 2880 2881 2882 2883 2884 2885 2886 2887 2888 2889 2890 2891 2892 2893 2894 2895 2896 2897 2898 2899 2900 2901 2902 2903 2904 2905 2906 2907 2908 2909 2910 2911 2912 2913 2914 2915 2916 2917 2918 2919 2920 2921 2922 2923 2924 2925 2926 2927 2928 2929 2930 2931 2932 2933 2934 2935 2936 2937 2938 2939 2940 2941 2942 2943 2944 2945 2946 2947 2948 2949 2950 2951 2952 2953 2954 2955 2956 2957 2958 2959 2960 2961 2962 2963 2964 2965 2966 2967 2968 2969 2970 2971 2972 2973 2974 2975 2976 2977 2978 2979 2980 2981 2982 2983 2984 2985 2986 2987 2988 2989 2990 2991 2992 2993 2994 2995 2996 2997 2998 2999 3000 3001 3002 3003 3004 3005 3006 3007 3008 3009 3010 3011 3012 3013 3014 3015 3016 3017 3018 3019 3020 3021 3022 3023 3024 3025 3026 3027 3028 3029 3030 3031 3032 3033 3034 3035 3036 3037 3038 3039 3040 3041 3042 3043 3044 3045 3046 3047 3048 3049 3050 3051 3052 3053 3054 3055 3056 3057 3058 3059 3060 3061 3062 3063 3064 3065 3066 3067 3068 3069 3070 3071 3072 3073 3074 3075 3076 3077 3078 3079 3080 3081 3082 3083 3084 3085 3086 3087 3088 3089 3090 3091 3092 3093 3094 3095 3096 3097 3098 3099 3100 3101 3102 3103 3104 3105 3106 3107 3108 3109 3110 3111 3112 3113 3114 3115 3116 3117 3118 3119 3120 3121 3122 3123 3124 3125 3126 3127 3128 3129 3130 3131 3132 3133 3134 3135 3136 3137 3138 3139 3140 3141 3142 3143 3144 3145 3146 3147 3148 3149 3150 3151 3152 3153 3154 3155 3156 3157 3158 3159 3160 3161 3162 3163 3164 3165 3166 3167 3168 3169 3170 3171 3172 3173 3174 3175 3176 3177 3178 3179 3180 3181 3182 3183 3184 3185 3186 3187 3188 3189 3190 3191 3192 3193 3194 3195 3196 3197 3198 3199 3200 3201 3202 3203 3204 3205 3206 3207 3208 3209 3210 3211 3212 3213 3214 3215 3216 3217 3218 3219 3220 3221 3222 3223 3224 3225 3226 3227 3228 3229 3230 3231 3232 3233 3234 3235 3236 3237 3238 3239 3240 3241 3242 3243 3244 3245 3246 3247 3248 3249 3250 3251 3252 3253 3254 3255 3256 3257 3258 3259 3260 3261 3262 3263 3264 3265 3266 3267 3268 3269 3270 3271 3272 3273 3274 3275 3276 3277 3278 3279 3280 3281 3282 3283 3284 3285 3286 3287 3288 3289 3290 3291 3292 3293 3294 3295 3296 3297 3298 3299 3300 3301 3302 3303 3304 3305 3306 3307 3308 3309 3310 3311 3312 3313 3314 3315 3316 3317 3318 3319 3320 3321 3322 3323 3324 3325 3326 3327 3328 3329 3330 3331 3332 3333 3334 3335 3336 3337 3338 3339 3340 3341 3342 3343 3344 3345 3346 3347 3348 3349 3350 3351 3352 3353 3354 3355 3356 3357 3358 3359 3360 3361 3362 3363 3364 3365 3366 3367 3368 3369 3370 3371 3372 3373 3374 3375 3376 3377 3378 3379 3380 3381 3382 3383 3384 3385 3386 3387 3388 3389 3390 3391 3392 3393 3394 3395 3396 3397 3398 3399 3400 3401 3402 3403 3404 3405 3406 3407 3408 3409 3410 3411 3412 3413 3414 3415 3416 3417 3418 3419 3420 3421 3422 3423 3424 3425 3426 3427 3428 3429 3430 3431 3432 3433 3434 3435 3436 3437 3438 3439 3440 3441 3442 3443 3444 3445 3446 3447 3448 3449 3450 3451 3452 3453 3454 3455 3456 3457 3458 3459 3460 3461 3462 3463 3464 3465 3466 3467 3468 3469 3470 3471 3472 3473 3474 3475 3476 3477 3478 3479 3480 3481 3482 3483 3484 3485 3486 3487 3488 3489 3490 3491 3492 3493 3494 3495 3496 3497 3498 3499 3500 3501 3502 3503 3504 3505 3506 3507 3508 3509 3510 3511 3512 3513 3514 3515 3516 3517 3518 3519 3520 3521 3522 3523 3524 3525 3526 3527 3528 3529 3530 3531 3532 3533 3534 3535 3536 3537 3538 3539 3540 3541 3542 3543 3544 3545 3546 3547 3548 3549 3550 3551 3552 3553 3554 3555 3556 3557 3558 3559 3560 3561 3562 3563 3564 3565 3566 3567 3568 3569 3570 3571 3572 3573 3574 3575 3576 3577 3578 3579 3580 3581 3582 3583 3584 3585 3586 3587 3588 3589 3590 3591 3592 3593 3594 3595 3596 3597 3598 3599 3600 3601 3602 3603 3604 3605 3606 3607 3608 3609 3610 3611 3612 3613 3614 3615 3616 3617 3618 3619 3620 3621 3622 3623 3624 3625 3626 3627 3628 3629 3630 3631 3632 3633 3634 3635 3636 3637 3638 3639 3640 3641 3642 3643 3644 3645 3646 3647 3648 3649 3650 3651 3652 3653 3654 3655 3656 3657 3658 3659 3660 3661 3662 3663 3664 3665 3666 3667 3668 3669 3670 3671 3672 3673 3674 3675 3676 3677 3678 3679 3680 3681 3682 3683 3684 3685 3686 3687 3688 3689 3690 3691 3692 3693 3694 3695 3696 3697 3698 3699 3700 3701 3702 3703 3704 3705 3706 3707 3708 3709 3710 3711 3712 3713 3714 3715 3716 3717 3718 3719 3720 3721 3722 3723 3724 3725 3726 3727 3728 3729 3730 3731 3732 3733 3734 3735 3736 3737 3738 3739 3740 3741 3742 3743 3744 3745 3746 3747 3748 3749 3750 3751 3752 3753 3754 3755 3756 3757 3758 3759 3760 3761 3762 3763 3764 3765 3766 3767 3768 3769 3770 3771 3772 3773 3774 3775 3776 3777 3778 3779 3780 3781 3782 3783 3784 3785 3786 3787 3788 3789 3790 3791 3792 3793 3794 3795 3796 3797 3798 3799 3800 3801 3802 3803 3804 3805 3806 3807 3808 3809 3810 3811 3812 3813 3814 3815 3816 3817 3818 3819 3820 3821 3822 3823 3824 3825 3826 3827 3828 3829 3830 3831 3832 3833 3834 3835 3836 3837 3838 3839 3840 3841 3842 3843 3844 3845 3846 3847 3848 3849 3850 3851 3852 3853 3854 3855 3856 3857 3858 3859 3860 3861 3862 3863 3864 3865 3866 3867 3868 3869 3870 3871 3872 3873 3874 3875 3876 3877 3878 3879 3880 3881 3882 3883 3884 3885 3886 3887 3888 3889 3890 3891 3892 3893 3894 3895 3896 3897 3898 3899 3900 3901 3902 3903 3904 3905 3906 3907 3908 3909 3910 3911 3912 3913 3914 3915 3916 3917 3918 3919 3920 3921 3922 3923 3924 3925 3926 3927 3928 3929 3930 3931 3932 3933 3934 3935 3936 3937 3938 3939 3940 3941 3942 3943 3944 3945 3946 3947 3948 3949 3950 3951 3952 3953 3954 3955 3956 3957 3958 3959 3960 3961 3962 3963 3964 3965 3966 3967 3968 3969 3970 3971 3972 3973 3974 3975 3976 3977 3978 3979 3980 3981 3982 3983 3984 3985 3986 3987 3988 3989 3990 3991 3992 3993 3994 3995 3996 3997 3998 3999 4000 4001 4002 4003 4004 4005 4006 4007 4008 4009 4010 4011 4012 4013 4014 4015 4016 4017 4018 4019 4020 4021 4022 4023 4024 4025 4026 4027 4028 4029 4030 4031 4032 4033 4034 4035 4036 4037 4038 4039 4040 4041 4042 4043 4044 4045 4046 4047 4048 4049 4050 4051 4052 4053 4054 4055 4056 4057 4058 4059 4060 4061 4062 4063 4064 4065 4066 4067 4068 4069 4070 4071 4072 4073 4074 4075 4076 4077 4078 4079 4080 4081 4082 4083 4084 4085 4086 4087 4088 4089 4090 4091 4092 4093 4094 4095 4096 4097 4098 4099 4100 4101 4102 4103 4104 4105 4106 4107 4108 4109 4110 4111 4112 4113 4114 4115 4116 4117 4118 4119 4120 4121 4122 4123 4124 4125 4126 4127 4128 4129 4130 4131 4132 4133 4134 4135 4136 4137 4138 4139 4140 4141 4142 4143 4144 4145 4146 4147 4148 4149 4150 4151 4152 4153 4154 4155 4156 4157 4158 4159 4160 4161 4162 4163 4164 4165 4166 4167 4168 4169 4170 4171 4172 4173 4174 4175 4176 4177 4178 4179 4180 4181 4182 4183 4184 4185 4186 4187 4188 4189 4190 4191 4192 4193 4194 4195 4196 4197 4198 4199 4200 4201 4202 4203 4204 4205 4206 4207 4208 4209 4210 4211 4212 4213 4214 4215 4216 4217 4218 4219 4220 4221 4222 4223 4224 4225 4226 4227 4228 4229 4230 4231 4232 4233 4234 4235 4236 4237 4238 4239 4240 4241 4242 4243 4244 4245 4246 4247 4248 4249 4250 4251 4252 4253 4254 4255 4256 4257 4258 4259 4260 4261 4262 4263 4264 4265 4266 4267 4268 4269 4270 4271 4272 4273 4274 4275 4276 4277 4278 4279 4280 4281 4282 4283 4284 4285 4286 4287 4288 4289 4290 4291 4292 4293 4294 4295 4296 4297 4298 4299 4300 4301 4302 4303 4304 4305 4306 4307 4308 4309 4310 4311 4312 4313 4314 4315 4316 4317 4318 4319 4320 4321 4322 4323 4324 4325 4326 4327 4328 4329 4330 4331 4332 4333 4334 4335 4336 4337 4338 4339 4340 4341 4342 4343 4344 4345 4346 4347 4348 4349 4350 4351 4352 4353 4354 4355 4356 4357 4358 4359 4360 4361 4362 4363 4364 4365 4366 4367 4368 4369 4370 4371 4372 4373 4374 4375 4376 4377 4378 4379 4380 4381 4382 4383 4384 4385 4386 4387 4388 4389 4390 4391 4392 4393 4394 4395 4396 4397 4398 4399 4400 4401 4402 4403 4404 4405 4406 4407 4408 4409 4410 4411 4412 4413 4414 4415 4416 4417 4418 4419 4420 4421 4422 4423 4424 4425 4426 4427 4428 4429 4430 4431 4432 4433 4434 4435 4436 4437 4438 4439 4440 4441 4442 4443 4444 4445 4446 4447 4448 4449 4450 4451 4452 4453 4454 4455 4456 4457 4458 4459 4460 4461 4462 4463 4464 4465 4466 4467 4468 4469 4470 4471 4472 4473 4474 4475 4476 4477 4478 4479 4480 4481 4482 4483 4484 4485 4486 4487 4488 4489 4490 4491 4492 4493 4494 4495 4496 4497 4498 4499 4500 4501 4502 4503 4504 4505 4506 4507 4508 4509 4510 4511 4512 4513 4514 4515 4516 4517 4518 4519 4520 4521 4522 4523 4524 4525 4526 4527 4528 4529 4530 4531 4532 4533 4534 4535 4536 4537 4538 4539 4540 4541 4542 4543 4544 4545 4546 4547 4548 4549 4550 4551 4552 4553 4554 4555 4556 4557 4558 4559 4560 4561 4562 4563 4564 4565 4566 4567 4568 4569 4570 4571 4572 4573 4574 4575 4576 4577 4578 4579 4580 4581 4582 4583 4584 4585 4586 4587 4588 4589 4590 4591 4592 4593 4594 4595 4596 4597 4598 4599 4600 4601 4602 4603 4604 4605 4606 4607 4608 4609 4610 4611 4612 4613 4614 4615 4616 4617 4618 4619 4620 4621 4622 4623 4624 4625 4626 4627 4628 4629 4630 4631 4632 4633 4634 4635 4636 4637 4638 4639 4640 4641 4642 4643 4644 4645 4646 4647 4648 4649 4650 4651 4652 4653 4654 4655 4656 4657 4658 4659 4660 4661 4662 4663 4664 4665 4666 4667 4668 4669 4670 4671 4672 4673 4674 4675 4676 4677 4678 4679 4680 4681 4682 4683 4684 4685 4686 4687 4688 4689 4690 4691 4692 4693 4694 4695 4696 4697 4698 4699 4700 4701 4702 4703 4704 4705 4706 4707 4708 4709 4710 4711 4712 4713 4714 4715 4716 4717 4718 4719 4720 4721 4722 4723 4724 4725 4726 4727 4728 4729 4730 4731 4732 4733 4734 4735 4736 4737 4738 4739 4740 4741 4742 4743 4744 4745 4746 4747 4748 4749 4750 4751 4752 4753 4754 4755 4756 4757 4758 4759 4760 4761 4762 4763 4764 4765 4766 4767 4768 4769 4770 4771 4772 4773 4774 4775 4776 4777 4778 4779 4780 4781 4782 4783 4784 4785 4786 4787 4788 4789 4790 4791 4792 4793 4794 4795 4796 4797 4798 4799 4800 4801 4802 4803 4804 4805 4806 4807 4808 4809 4810 4811 4812 4813 4814 4815 4816 4817 4818 4819 4820 4821 4822 4823 4824 4825 4826 4827 4828 4829 4830 4831 4832 4833 4834 4835 4836 4837 4838 4839 4840 4841 4842 4843 4844 4845 4846 4847 4848 4849 4850 4851 4852 4853 4854 4855 4856 4857 4858 4859 4860 4861 4862 4863 4864 4865 4866 4867 4868 4869 4870 4871 4872 4873 4874 4875 4876 4877 4878 4879 4880 4881 4882 4883 4884 4885 4886 4887 4888 4889 4890 4891 4892 4893 4894 4895 4896 4897 4898 4899 4900 4901 4902 4903 4904 4905 4906 4907 4908 4909 4910 4911 4912 4913 4914 4915 4916 4917 4918 4919 4920 4921 4922 4923 4924 4925 4926 4927 4928 4929 4930 4931 4932 4933 4934 4935 4936 4937 4938 4939 4940 4941 4942 4943 4944 4945 4946 4947 4948 </DataArray>
        <DataArray type="UInt8" Name="vtkGhostType" format="ascii" RangeMin="0" RangeMax="0">0 0 0 0 0 0 0 0 0 0 0 0 0 0 0 0 0 0 0 0 0 0 0 0 0 0 0 0 0 0 0 0 0 0 0 0 0 0 0 0 0 0 0 0 0 0 0 0 0 0 0 0 0 0 0 0 0 0 0 0 0 0 0 0 0 0 0 0 0 0 0 0 0 0 0 0 0 0 0 0 0 0 0 0 0 0 0 0 0 0 0 0 0 0 0 0 0 0 0 0 0 0 0 0 0 0 0 0 0 0 0 0 0 0 0 0 0 0 0 0 0 0 0 0 0 0 0 0 0 0 0 0 0 0 0 0 0 0 0 0 0 0 0 0 0 0 0 0 0 0 0 0 0 0 0 0 0 0 0 0 0 0 0 0 0 0 0 0 0 0 0 0 0 0 0 0 0 0 0 0 0 0 0 0 0 0 0 0 0 0 0 0 0 0 0 0 0 0 0 0 0 0 0 0 0 0 0 0 0 0 0 0 0 0 0 0 0 0 0 0 0 0 0 0 0 0 0 0 0 0 0 0 0 0 0 0 0 0 0 0 0 0 0 0 0 0 0 0 0 0 0 0 0 0 0 0 0 0 0 0 0 0 0 0 0 0 0 0 0 0 0 0 0 0 0 0 0 0 0 0 0 0 0 0 0 0 0 0 0 0 0 0 0 0 0 0 0 0 0 0 0 0 0 0 0 0 0 0 0 0 0 0 0 0 0 0 0 0 0 0 0 0 0 0 0 0 0 0 0 0 0 0 0 0 0 0 0 0 0 0 0 0 0 0 0 0 0 0 0 0 0 0 0 0 0 0 0 0 0 0 0 0 0 0 0 0 0 0 0 0 0 0 0 0 0 0 0 0 0 0 0 0 0 0 0 0 0 0 0 0 0 0 0 0 0 0 0 0 0 0 0 0 0 0 0 0 0 0 0 0 0 0 0 0 0 0 0 0 0 0 0 0 0 0 0 0 0 0 0 0 0 0 0 0 0 0 0 0 0 0 0 0 0 0 0 0 0 0 0 0 0 0 0 0 0 0 0 0 0 0 0 0 0 0 0 0 0 0 0 0 0 0 0 0 0 0 0 0 0 0 0 0 0 0 0 0 0 0 0 0 0 0 0 0 0 0 0 0 0 0 0 0 0 0 0 0 0 0 0 0 0 0 0 0 0 0 0 0 0 0 0 0 0 0 0 0 0 0 0 0 0 0 0 0 0 0 0 0 0 0 0 0 0 0 0 0 0 0 0 0 0 0 0 0 0 0 0 0 0 0 0 0 0 0 0 0 0 0 0 0 0 0 0 0 0 0 0 0 0 0 0 0 0 0 0 0 0 0 0 0 0 0 0 0 0 0 0 0 0 0 0 0 0 0 0 0 0 0 0 0 0 0 0 0 0 0 0 0 0 0 0 0 0 0 0 0 0 0 0 0 0 0 0 0 0 0 0 0 0 0 0 0 0 0 0 0 0 0 0 0 0 0 0 0 0 0 0 0 0 0 0 0 0 0 0 0 0 0 0 0 0 0 0 0 0 0 0 0 0 0 0 0 0 0 0 0 0 0 0 0 0 0 0 0 0 0 0 0 0 0 0 0 0 0 0 0 0 0 0 0 0 0 0 0 0 0 0 0 0 0 0 0 0 0 0 0 0 0 0 0 0 0 0 0 0 0 0 0 0 0 0 0 0 0 0 0 0 0 0 0 0 0 0 0 0 0 0 0 0 0 0 0 0 0 0 0 0 0 0 0 0 0 0 0 0 0 0 0 0 0 0 0 0 0 0 0 0 0 0 0 0 0 0 0 0 0 0 0 0 0 0 0 0 0 0 0 0 0 0 0 0 0 0 0 0 0 0 0 0 0 0 0 0 0 0 0 0 0 0 0 0 0 0 0 0 0 0 0 0 0 0 0 0 0 0 0 0 0 0 0 0 0 0 0 0 0 0 0 0 0 0 0 0 0 0 0 0 0 0 0 0 0 0 0 0 0 0 0 0 0 0 0 0 0 0 0 0 0 0 0 0 0 0 0 0 0 0 0 0 0 0 0 0 0 0 0 0 0 0 0 0 0 0 0 0 0 0 0 0 0 0 0 0 0 0 0 0 0 0 0 0 0 0 0 0 0 0 0 0 0 0 0 0 0 0 0 0 0 0 0 0 0 0 0 0 0 0 0 0 0 0 0 0 0 0 0 0 0 0 0 0 0 0 0 0 0 0 0 0 0 0 0 0 0 0 0 0 0 0 0 0 0 0 0 0 0 0 0 0 0 0 0 0 0 0 0 0 0 0 0 0 0 0 0 0 0 0 0 0 0 0 0 0 0 0 0 0 0 0 0 0 0 0 0 0 0 0 0 0 0 0 0 0 0 0 0 0 0 0 0 0 0 0 0 0 0 0 0 0 0 0 0 0 0 0 0 0 0 0 0 0 0 0 0 0 0 0 0 0 0 0 0 0 0 0 0 0 0 0 0 0 0 0 0 0 0 0 0 0 0 0 0 0 0 0 0 0 0 0 0 0 0 0 0 0 0 0 0 0 0 0 0 0 0 0 0 0 0 0 0 0 0 0 0 0 0 0 0 0 0 0 0 0 0 0 0 0 0 0 0 0 0 0 0 0 0 0 0 0 0 0 0 0 0 0 0 0 0 0 0 0 0 0 0 0 0 0 0 0 0 0 0 0 0 0 0 0 0 0 0 0 0 0 0 0 0 0 0 0 0 0 0 0 0 0 0 0 0 0 0 0 0 0 0 0 0 0 0 0 0 0 0 0 0 0 0 0 0 0 0 0 0 0 0 0 0 0 0 0 0 0 0 0 0 0 0 0 0 0 0 0 0 0 0 0 0 0 0 0 0 0 0 0 0 0 0 0 0 0 0 0 0 0 0 0 0 0 0 0 0 0 0 0 0 0 0 0 0 0 0 0 0 0 0 0 0 0 0 0 0 0 0 0 0 0 0 0 0 0 0 0 0 0 0 0 0 0 0 0 0 0 0 0 0 0 0 0 0 0 0 0 0 0 0 0 0 0 0 0 0 0 0 0 0 0 0 0 0 0 0 0 0 0 0 0 0 0 0 0 0 0 0 0 0 0 0 0 0 0 0 0 0 0 0 0 0 0 0 0 0 0 0 0 0 0 0 0 0 0 0 0 0 0 0 0 0 0 0 0 0 0 0 0 0 0 0 0 0 0 0 0 0 0 0 0 0 0 0 0 0 0 0 0 0 0 0 0 0 0 0 0 0 0 0 0 0 0 0 0 0 0 0 0 0 0 0 0 0 0 0 0 0 0 0 0 0 0 0 0 0 0 0 0 0 0 0 0 0 0 0 0 0 0 0 0 0 0 0 0 0 0 0 0 0 0 0 0 0 0 0 0 0 0 0 0 0 0 0 0 0 0 0 0 0 0 0 0 0 0 0 0 0 0 0 0 0 0 0 0 0 0 0 0 0 0 0 0 0 0 0 0 0 0 0 0 0 0 0 0 0 0 0 0 0 0 0 0 0 0 0 0 0 0 0 0 0 0 0 0 0 0 0 0 0 0 0 0 0 0 0 0 0 0 0 0 0 0 0 0 0 0 0 0 0 0 0 0 0 0 0 0 0 0 0 0 0 0 0 0 0 0 0 0 0 0 0 0 0 0 0 0 0 0 0 0 0 0 0 0 0 0 0 0 0 0 0 0 0 0 0 0 0 0 0 0 0 0 0 0 0 0 0 0 0 0 0 0 0 0 0 0 0 0 0 0 0 0 0 0 0 0 0 0 0 0 0 0 0 0 0 0 0 0 0 0 0 0 0 0 0 0 0 0 0 0 0 0 0 0 0 0 0 0 0 0 0 0 0 0 0 0 0 0 0 0 0 0 0 0 0 0 0 0 0 0 0 0 0 0 0 0 0 0 0 0 0 0 0 0 0 0 0 0 0 0 0 0 0 0 0 0 0 0 0 0 0 0 0 0 0 0 0 0 0 0 0 0 0 0 0 0 0 0 0 0 0 0 0 0 0 0 0 0 0 0 0 0 0 0 0 0 0 0 0 0 0 0 0 0 0 0 0 0 0 0 0 0 0 0 0 0 0 0 0 0 0 0 0 0 0 0 0 0 0 0 0 0 0 0 0 0 0 0 0 0 0 0 0 0 0 0 0 0 0 0 0 0 0 0 0 0 0 0 0 0 0 0 0 0 0 0 0 0 0 0 0 0 0 0 0 0 0 0 0 0 0 0 0 0 0 0 0 0 0 0 0 0 0 0 0 0 0 0 0 0 0 0 0 0 0 0 0 0 0 0 0 0 0 0 0 0 0 0 0 0 0 0 0 0 0 0 0 0 0 0 0 0 0 0 0 0 0 0 0 0 0 0 0 0 0 0 0 0 0 0 0 0 0 0 0 0 0 0 0 0 0 0 0 0 0 0 0 0 0 0 0 0 0 0 0 0 0 0 0 0 0 0 0 0 0 0 0 0 0 0 0 0 0 0 0 0 0 0 0 0 0 0 0 0 0 0 0 0 0 0 0 0 0 0 0 0 0 0 0 0 0 0 0 0 0 0 0 0 0 0 0 0 0 0 0 0 0 0 0 0 0 0 0 0 0 0 0 0 0 0 0 0 0 0 0 0 0 0 0 0 0 0 0 0 0 0 0 0 0 0 0 0 0 0 0 0 0 0 0 0 0 0 0 0 0 0 0 0 0 0 0 0 0 0 0 0 0 0 0 0 0 0 0 0 0 0 0 0 0 0 0 0 0 0 0 0 0 0 0 0 0 0 0 0 0 0 0 0 0 0 0 0 0 0 0 0 0 0 0 0 0 0 0 0 0 0 0 0 0 0 0 0 0 0 0 0 0 0 0 0 0 0 0 0 0 0 0 0 0 0 0 0 0 0 0 0 0 0 0 0 0 0 0 0 0 0 0 0 0 0 0 0 0 0 0 0 0 0 0 0 0 0 0 0 0 0 0 0 0 0 0 0 0 0 0 0 0 0 0 0 0 0 0 0 0 0 0 0 0 0 0 0 0 0 0 0 0 0 0 0 0 0 0 0 0 0 0 0 0 0 0 0 0 0 0 0 0 0 0 0 0 0 0 0 0 0 0 0 0 0 0 0 0 0 0 0 0 0 0 0 0 0 0 0 0 0 0 0 0 0 0 0 0 0 0 0 0 0 0 0 0 0 0 0 0 0 0 0 0 0 0 0 0 0 0 0 0 0 0 0 0 0 0 0 0 0 0 0 0 0 0 0 0 0 0 0 0 0 0 0 0 0 0 0 0 0 0 0 0 0 0 0 0 0 0 0 0 0 0 0 0 0 0 0 0 0 0 0 0 0 0 0 0 0 0 0 0 0 0 0 0 0 0 0 0 0 0 0 0 0 0 0 0 0 0 0 0 0 0 0 0 0 0 0 0 0 0 0 0 0 0 0 0 0 0 0 0 0 0 0 0 0 0 0 0 0 0 0 0 0 0 0 0 0 0 0 0 0 0 0 0 0 0 0 0 0 0 0 0 0 0 0 0 0 0 0 0 0 0 0 0 0 0 0 0 0 0 0 0 0 0 0 0 0 0 0 0 0 0 0 0 0 0 0 0 0 0 0 0 0 0 0 0 0 0 0 0 0 0 0 0 0 0 0 0 0 0 0 0 0 0 0 0 0 0 0 0 0 0 0 0 0 0 0 0 0 0 0 0 0 0 0 0 0 0 0 0 0 0 0 0 0 0 0 0 0 0 0 0 0 0 0 0 0 0 0 0 0 0 0 0 0 0 0 0 0 0 0 0 0 0 0 0 0 0 0 0 0 0 0 0 0 0 0 0 0 0 0 0 0 0 0 0 0 0 0 0 0 0 0 0 0 0 0 0 0 0 0 0 0 0 0 0 0 0 0 0 0 0 0 0 0 0 0 0 0 0 0 0 0 0 0 0 0 0 0 0 0 0 0 0 0 0 0 0 0 0 0 0 0 0 0 0 0 0 0 0 0 0 0 0 0 0 0 0 0 0 0 0 0 0 0 0 0 0 0 0 0 0 0 0 0 0 0 0 0 0 0 0 0 0 0 0 0 0 0 0 0 0 0 0 0 0 0 0 0 0 0 0 0 0 0 0 0 0 0 0 0 0 0 0 0 0 0 0 0 0 0 0 0 0 0 0 0 0 0 0 0 0 0 0 0 0 0 0 0 0 0 0 0 0 0 0 0 0 0 0 0 0 0 0 0 0 0 0 0 0 0 0 0 0 0 0 0 0 0 0 0 0 0 0 0 0 0 0 0 0 0 0 0 0 0 0 0 0 0 0 0 0 0 0 0 0 0 0 0 0 0 0 0 0 0 0 0 0 0 0 0 0 0 0 0 0 0 0 0 0 0 0 0 0 0 0 0 0 0 0 0 0 0 0 0 0 0 0 0 0 0 0 0 0 0 0 0 0 0 0 0 0 0 0 0 0 0 0 0 0 0 0 0 0 0 0 0 0 0 0 0 0 0 0 0 0 0 0 0 0 0 0 0 0 0 0 0 0 0 0 0 0 0 0 0 0 0 0 0 0 0 0 0 0 0 0 0 0 0 0 0 0 0 0 0 0 0 0 0 0 0 0 0 0 0 0 0 0 0 0 0 0 0 0 0 0 0 0 0 0 0 0 0 0 0 0 0 0 0 0 0 0 0 0 0 0 0 0 0 0 0 0 0 0 0 0 0 0 0 0 0 0 0 0 0 0 0 0 0 0 0 0 0 0 0 0 0 0 0 0 0 0 0 0 0 0 0 0 0 0 0 0 0 0 0 0 0 0 0 0 0 0 0 0 0 0 0 0 0 0 0 0 0 0 0 0 0 0 0 0 0 0 0 0 0 0 0 0 0 0 0 0 0 0 0 0 0 0 0 0 0 0 0 0 0 0 0 0 0 0 0 0 0 0 0 0 0 0 0 0 0 0 0 0 0 0 0 0 0 0 0 0 0 0 0 0 0 0 0 0 0 0 0 0 0 0 0 0 0 0 0 0 0 0 0 0 0 0 0 0 0 0 0 0 0 0 0 0 0 0 0 0 0 0 0 0 0 0 0 0 0 0 0 0 0 0 0 0 0 0 0 0 0 0 0 0 0 0 0 0 0 0 0 0 0 0 0 0 0 0 0 0 0 0 0 0 0 0 0 0 0 0 0 0 0 0 0 0 0 0 0 0 0 0 0 0 0 0 0 0 0 0 0 0 0 0 0 0 0 0 0 0 0 0 0 0 0 0 0 0 0 0 0 0 0 0 0 0 0 0 0 0 0 0 0 0 0 0 0 0 0 0 0 0 0 0 0 0 0 0 0 0 0 0 0 0 0 0 0 0 0 0 0 0 0 0 0 0 0 0 0 0 0 0 0 0 0 0 0 0 0 0 0 0 0 0 0 0 0 0 0 0 0 0 0 0 0 0 0 0 0 0 0 0 0 0 0 0 0 0 0 0 0 0 0 0 0 0 0 0 0 0 0 0 0 0 0 0 0 0 0 0 0 0 0 0 0 0 0 0 0 0 0 0 0 0 0 0 0 0 0 0 0 0 0 0 0 0 0 0 0 0 0 0 0 0 0 0 0 0 0 0 0 0 0 0 0 0 0 0 0 0 0 0 0 0 0 0 0 0 0 0 0 0 0 0 0 0 0 0 0 0 0 0 0 0 0 0 0 0 0 0 0 0 0 0 0 0 0 0 0 0 0 0 0 0 0 0 0 0 0 0 0 0 0 0 0 0 0 0 0 0 0 0 0 0 0 0 0 0 0 0 0 0 0 0 0 0 0 0 0 0 0 0 0 0 0 0 0 0 0 0 0 0 0 0 0 0 0 0 0 0 0 0 0 0 0 0 0 0 0 0 0 0 0 0 0 0 0 0 0 0 0 0 0 0 0 0 0 0 0 0 0 0 0 0 0 0 0 0 0 0 0 0 0 0 0 0 0 0 0 0 0 0 0 0 0 0 0 0 0 0 0 0 0 0 0 0 0 0 0 0 0 0 0 0 0 0 0 0 0 0 0 0 0 0 0 0 0 0 0 0 0 0 0 0 0 0 0 0 0 0 0 0 0 0 0 0 0 0 0 0 0 0 0 0 0 0 0 0 0 0 0 0 0 0 0 0 0 0 0 0 0 0 0 0 0 0 0 0 0 0 0 0 0 0 0 0 0 0 0 0 0 0 0 0 0 0 0 0 0 0 0 0 0 0 0 0 0 0 0 0 0 0 0 0 0 0 0 0 0 0 0 0 0 0 0 0 0 0 0 0 0 0 0 0 0 0 0 0 0 0 0 0 0 0 0 0 0 0 0 0 0 0 0 0 0 0 0 0 0 0 0 0 0 0 0 0 0 0 0 0 0 0 0 0 0 0 0 0 0 0 0 0 0 0 0 0 0 0 0 0 0 0 0 0 0 0 0 0 0 0 0 0 0 0 0 0 0 0 0 0 0 0 0 0 0 0 0 0 0 0 0 0 0 0 0 0 0 0 0 0 0 0 0 0 0 0 0 0 0 0 0 0 0 0 0 0 0 0 0 0 0 0 0 0 0 0 0 0 0 0 0 0 0 0 0 0 0 0 0 0 0 0 0 0 0 0 0 0 0 0 0 0 0 0 0 0 0 0 0 0 0 0 0 0 0 0 0 0 0 0 0 0 0 0 0 0 0 0 0 0 0 0 0 0 0 0 0 0 0 0 0 0 0 0 0 0 0 0 0 0 0 0 0 0 0 0 0 0 0 0 0 0 0 0 0 0 0 0 0 0 0 0 0 0 0 0 0 0 0 0 0 0 0 0 0 0 0 0 0 0 0 0 0 0 0 0 0 0 0 0 0 0 0 0 0 0 0 0 0 0 0 0 0 0 0 0 0 0 0 0 0 0 0 0 0 0 0 0 0 0 0 0 0 0 0 0 0 0 0 0 0 0 0 0 0 0 0 0 0 0 0 0 0 0 0 0 0 0 0 0 0 0 0 0 0 0 0 0 0 0 0 0 0 0 0 0 0 0 0 0 0 0 0 0 0 0 0 0 0 0 0 0 0 0 0 0 0 0 0 0 0 0 0 0 0 0 0 0 0 0 0 0 0 0 0 0 0 0 0 0 0 0 0 0 0 0 0 0 0 0 0 0 0 0 0 0 0 0 0 0 0 0 0 0 0 0 0 0 0 0 0 0 0 0 0 0 0 0 0 0 0 0 0 0 0 0 0 0 0 0 0 0 0 0 0 0 0 0 0 0 0 0 0 0 0 0 0 0 0 0 0 0 0 0 0 0 0 0 0 0 0 0 0 0 0 0 0 0 0 0 0 0 0 0 0 0 0 0 0 0 0 0 0 0 0 0 0 0 0 0 0 0 0 0 0 0 0 0 0 0 0 0 0 0 0 0 0 0 0 0 0 0 0 0 0 0 0 0 0 0 0 0 0 0 0 0 0 0 0 0 0 0 0 0 0 0 0 0 0 0 0 0 0 0 0 0 0 0 0 0 0 0 0 0 0 0 0 0 0 0 0 0 0 0 0 0 0 0 0 0 0 0 0 0 0 0 0 0 0 0 0 0 0 0 0 0 0 0 0 0 0 0 0 0 0 0 0 0 0 0 0 0 0 0 0 0 0 0 0 0 0 0 0 0 0 0 0 0 0 0 0 0 0 0 0 0 0 0 0 0 0 0 0 0 0 0 0 0 0 0 0 0 0 0 0 0 0 0 0 0 0 0 0 0 0 0 0 0 0 0 0 0 0 0 0 0 0 0 0 0 0 0 0 0 0 0 0 0 0 0 0 0 0 0 0 0 0 0 0 0 0 0 0 0 0 0 0 0 0 0 0 0 0 0 0 0 0 0 0 0 0 0 0 0 0 0 0 0 0 0 0 0 0 0 0 0 0 0 0 0 0 0 0 0 0 0 0 0 0 0 0 0 0 0 0 0 0 0 0 0 0 0 0 0 0 0 0 0 0 0 0 0 0 0 0 0 0 0 0 0 0 0 0 0 0 0 0 0 0 0 0 0 0 0 0 0 0 0 0 0 0 0 0 0 0 0 0 0 0 0 0 0 0 0 0 0 0 0 0 0 0 0 0 0 0 0 0 0 0 0 0 0 0 0 0 0 0 0 0 0 0 0 0 0 0 0 0 0 0 0 0 0 0 0 0 0 0 0 0 0 0 0 0 0 0 0 0 0 0 0 0 0 0 0 0 0 0 0 0 0 0 0 0 0 0 0 0 0 0 0 0 0 0 0 0 0 0 0 0 0 0 0 0 0 0 0 0 0 0 0 0 0 0 0 0 0 0 0 0 0 0 0 0 0 0 0 0 0 0 0 0 0 0 0 0 0 0 0 0 0 0 0 0 0 0 0 0 0 0 0 0 0 0 0 0 0 0 0 0 0 0 0 0 0 0 0 0 0 0 0 0 0 0 0 0 0 0 0 0 0 0 0 0 0 0 0 0 0 0 0 0 0 0 0 0 0 0 0 0 0 0 0 0 0 0 0 0 0 0 0 0 0 0 0 0 0 0 0 0 0 0 0 0 0 0 0 0 0 0 0 0 0 0 0 0 0 0 0 0 0 0 0 0 0 0 0 0 0 0 0 0 0 0 0 0 0 0 0 0 0 0 0 0 0 0 0 0 0 0 0 0 0 0 0 0 0 0 0 0 0 0 0 0 0 0 0 0 0 0 0 0 0 0 0 0 0 0 0 0 0 0 0 0 0 0 0 0 0 0 0 0 0 0 0 0 0 0 0 0 0 0 0 0 0 0 0 0 0 0 0 0 0 0 0 0 0 0 0 0 0 0 0 0 0 0 0 0 0 0 0 0 0 0 0 0 0 0 0 0 0 0 0 0 0 0 0 0 0 0 0 0 0 0 0 0 0 0 0 0 0 0 0 0 0 0 0 0 0 0 0 0 0 0 0 0 0 0 0 0 0 0 0 0 0 0 0 0 0 0 0 0 0 0 0 0 0 0 0 0 0 0 0 0 0 0 0 0 0 0 0 0 0 0 0 0 0 0 0 0 0 0 0 0 0 0 0 0 0 0 0 0 0 0 0 0 0 0 0 0 0 0 0 0 0 0 0 0 0 0 0 0 0 0 0 0 0 0 0 0 0 0 0 0 0 0 0 0 0 0 0 0 0 0 0 0 0 0 0 0 0 0 0 0 0 0 0 0 0 0 0 0 0 0 0 0 </DataArray>
        <DataArray type="Float64" Name="f" format="ascii" NumberOfComponents="3">-0.001454813370916197 0.0007224128121502063 -0.1993969686143367 0 0 -0.2 0 0 -0.2 0 0 -0.2 -4.001433411255139e-20 6.185678861823407e-21 -0.2 -4.03791825230925e-20 2.005098343333418e-20 -0.2 -4.03791825230925e-20 2.005098343333418e-20 -0.2 -0.0007274066854580985 0.0003612064060751032 -0.1996984843071684 -0.0007274066854580984 0.0003612064060751031 -0.1996984843071684 -0.0007274066854580984 0.0003612064060751031 -0.1996984843071684 0 0 -0.2 -1.45349307466063e-20 9.375105435839721e-21 -0.2 -4.03791825230925e-20 2.005098343333418e-20 -0.2 -0.0007274066854580984 0.0003612064060751031 -0.1996984843071684 -0.00144166832159012 0.0002228625681371316 -0.1991805641673241 -0.0007208341607950598 0.0001114312840685658 -0.199590282083662 -0.0007208341607950598 0.0001114312840685658 -0.199590282083662 -0.001448240846253159 0.000472637690143669 -0.1992887663908304 -0.0005236760695541769 0.000337773770779255 -0.2000031039433652 -0.0002618380347770884 0.0001688868853896275 -0.2000015519716826 -0.0002618380347770884 0.0001688868853896275 -0.2000015519716826 -0.0009892447202351868 0.0005300932914647306 -0.1997000362788509 0 0 -0.2 -1.271084411426879e-20 2.98827944264172e-21 -0.2 -4.001433411255139e-20 6.185678861823407e-21 -0.2 -0.0007208341607950599 0.0001114312840685658 -0.1995902820836621 -0.0004579564225326829 0.0001076641134748813 -0.1998333450506072 -0.0002289782112663414 5.383205673744066e-05 -0.1999166725253036 -0.0009498123720614014 0.0001652633408060065 -0.1995069546089656 -0.00095638489672444 0.0004150384628125439 -0.1996151568324719 0 0 -0.2 -1.271084411426879e-20 2.98827944264172e-21 -0.2 -1.45349307466063e-20 9.375105435839721e-21 -0.2 -0.0002618380347770885 0.0001688868853896275 -0.2000015519716826 -0.00049081624604343 0.0002227189421270682 -0.1999182244969862 0 0 -0.2 -3.979473084710004e-20 -3.534766183137441e-21 -0.2 -4.001433411255139e-20 6.185678861823407e-21 -0.2 -0.0007208341607950598 0.0001114312840685658 -0.199590282083662 -0.0002289782112663414 5.383205673744066e-05 -0.1999166725253036 -0.002988894377297238 0.001142098989700013 -0.1986926236569422 -0.00172342539991496 0.000624881551587447 -0.1992629843537747 -0.002215281349443679 0.0006824807789185721 -0.1989365939121331 -0.002221853874106717 0.0009322559009251094 -0.1990447961356395 0 0 -0.2 9.358981534831958e-21 -7.341539852885705e-21 -0.2 -1.45349307466063e-20 9.375105435839721e-21 -0.2 -0.0002618380347770884 0.0001688868853896275 -0.2000015519716826 -0.0002289782112663414 5.383205673744066e-05 -0.1999166725253036 -0.001756285223425707 0.0007399363802396338 -0.1993478638001537 -0.001433756280114471 -0.0001273533733217569 -0.1991605092882696 -0.0007168781400572356 -6.367668666087842e-05 -0.1995802546441348 -0.0007168781400572356 -6.367668666087842e-05 -0.1995802546441348 -0.001437712300852296 4.775459740768738e-05 -0.1991705367277969 0 0 -0.2 -1.241476646054978e-20 -8.931369373596033e-22 -0.2 -1.271084411426879e-20 2.98827944264172e-21 -0.2 -0.0002289782112663415 5.383205673744066e-05 -0.1999166725253036 -0.0004472891008449897 -3.217864942626829e-05 -0.199828003678692 -0.0002236445504224948 -1.608932471313414e-05 -0.199914001839346 -0.0004526227616888363 3.774273202430653e-05 -0.1998306743646496 -0.0009444787112175548 9.534195935543166e-05 -0.199504283923008 -0.002974780353046291 0.0004042738691521737 -0.1983358288091481 -0.001716368387789487 0.0002559689913135274 -0.1990845869298776 -0.002208224337318205 0.0003135682186446526 -0.1987581964882361 -0.002981837365171765 0.0007731864294260931 -0.1985142262330452 0.0003371928460226925 -0.0002645068491662537 -0.2000680463298113 0.0001685964230113462 -0.0001322534245831268 -0.2000340231649056 0.0001685964230113462 -0.0001322534245831268 -0.2000340231649056 -9.324161176574221e-05 3.663346080650068e-05 -0.2000355751365882 1.043537791154642e-20 -1.165506804813499e-21 -0.2 0.0003759741125912861 -4.199180809484682e-05 -0.1998609017674275 0.000187987056295643 -2.099590404742341e-05 -0.1999304508837138 -4.09911549706984e-05 3.283615269001725e-05 -0.1998471234090173 -7.385097848144545e-05 0.0001478909813422041 -0.1999320028553963 -0.001052294588213162 0.0005331119194240926 -0.1995583240294806 -0.0007551255053729225 0.0003203880164494869 -0.1996958345400439 -0.0007879853288836695 0.0004354428451016737 -0.1997807139864229 -0.0020205944827552 0.0008376054545620526 -0.1991254738432114 0 0 -0.2 -1.241476646054978e-20 -8.931369373596033e-22 -0.2 -3.979473084710004e-20 -3.534766183137441e-21 -0.2 -0.0007168781400572357 -6.367668666087842e-05 -0.1995802546441348 -0.0009405226904797305 -7.976601137401254e-05 -0.1994942564834808 -0.0002236445504224948 -1.608932471313414e-05 -0.199914001839346 -0.001711034726945641 0.0001860476098629527 -0.19908191624392 -0.0009604081210192651 0.0002064823717951555 -0.1992453576755522 -0.0007091822717759739 0.0001570732426350184 -0.1995393513630797 -0.001967594237032778 0.0003053781204736646 -0.1987905932423501 -0.001974651249158252 0.0006742906807475841 -0.1989689906662472 0 0 -0.2 1.043537791154642e-20 -1.165506804813499e-21 -0.2 9.358981534831958e-21 -7.341539852885705e-21 -0.2 0.0001685964230113462 -0.0001322534245831268 -0.2000340231649056 0.0003565834793069893 -0.0001532493286305502 -0.1999644740486194 0.000187987056295643 -2.099590404742341e-05 -0.1999304508837138 -0.000338160237810938 0.0002455600556646229 -0.199709612898454 -0.001006351354616214 0.0003697971456096241 -0.1994018408525164 0 0 -0.2 4.793670278844523e-21 1.842787344098573e-20 -0.2 -3.979473084710004e-20 -3.534766183137441e-21 -0.2 -0.0007168781400572356 -6.367668666087842e-05 -0.1995802546441348 -0.0002236445504224948 -1.608932471313414e-05 -0.199914001839346 -0.002204268316580381 0.0001384602479152084 -0.1987481690487088 0 0 -0.2 1.070823706095185e-20 2.228139080929551e-21 -0.2 -1.241476646054978e-20 -8.931369373596033e-22 -0.2 -0.0002236445504224949 -1.608932471313415e-05 -0.199914001839346 0.0003858048994999816 8.027717067683173e-05 -0.1998603840656117 0.0001929024497499908 4.013858533841586e-05 -0.1999301920328058 -3.07421006725041e-05 2.404926062528172e-05 -0.1998441938721518 -3.607576151635071e-05 9.397064207585654e-05 -0.1998468645581094 -0.0007038486109321273 8.71518611844436e-05 -0.199536680677122 -0.00453692367751504 0.001403100669614379 -0.1977493080443972 -0.002748665899267152 0.0008047915207047671 -0.1984973328599747 -0.003755852015280665 0.0009036872693832761 -0.1980425684267726 -0.003762909027406138 0.001272599829657196 -0.1982209658506697 0 0 -0.2 9.358981534831958e-21 -7.341539852885705e-21 -0.2 9.358981534831958e-21 -7.341539852885705e-21 -0.2 0.0001685964230113462 -0.0001322534245831268 -0.2000340231649056 0.000187987056295643 -2.099590404742341e-05 -0.1999304508837138 -0.0003575508710952348 0.0001343025351289194 -0.1998131851796459 0 0 -0.2 1.070823706095185e-20 2.228139080929551e-21 -0.2 1.043537791154642e-20 -1.165506804813499e-21 -0.2 0.000187987056295643 -2.099590404742341e-05 -0.1999304508837138 0.0003808895060456339 1.914268129099246e-05 -0.1998606429165196 -0.0002922170042139894 8.224528185015434e-05 -0.1995531297214898 -0.002794609132864101 0.0009681062945192355 -0.1986538160369389 -0.001606466453566801 -0.0007912874850181888 -0.199271284996648 -0.0008032332267834004 -0.0003956437425090943 -0.199635642498324 -0.0008032332267834005 -0.0003956437425090944 -0.199635642498324 -0.001520111366840636 -0.0004593204291699728 -0.1992158971424589 7.157347551419638e-23 6.09505924678439e-21 -0.2 -0.0004498678070662325 -0.0002517763018472225 -0.1999966896279508 -0.0002249339035331162 -0.0001258881509236113 -0.1999983448139754 -0.0004485784539556111 -0.0001419774756367454 -0.1999123466533214 -0.0009418120435903519 -0.0001895648375844896 -0.1995785994581102 -0.002986428295837748 -0.0002116795091313457 -0.1983016949800561 -0.001716858698341369 -0.000121929079278807 -0.199064849329374 -0.002210092287976109 -0.0001695164412265513 -0.1987311021341628 -0.00298060432444202 9.629718001041398e-05 -0.1983187618946021 0.0001929024497499908 4.013858533841586e-05 -0.1999301920328058 -0.0002873016107596418 0.0001433797712359936 -0.1995528708705819 -0.0009403295565474991 -2.962875216584925e-05 -0.199222819350227 -0.0006938093286962444 -3.090370079605877e-05 -0.1995254115144595 -0.0009503688387833822 8.842680981465314e-05 -0.1992340885128896 -0.001957554954796895 0.0001873225584931622 -0.1987793240796875 -0.004533655334831885 0.0005457647178129013 -0.1972942120498815 -0.002747031727925574 0.0003761235448040284 -0.1982697848627168 -0.003754217843939088 0.0004750192934825374 -0.1978150204295148 -0.004535289506173462 0.00097443269371364 -0.1975217600471394 0.001574839434458014 -0.0007369464079176469 -0.1992633876460453 0.0007874197172290071 -0.0003684732039588234 -0.1996316938230226 0.000787419717229007 -0.0003684732039588234 -0.1996316938230226 0.0009560161402403533 -0.0005007266285419502 -0.1996657169879283 1.043537791154642e-20 -1.165506804813499e-21 -0.2 0.001538342768063384 -0.000179874829254858 -0.1991608308657975 0.0007691713840316919 -8.993741462742902e-05 -0.1995804154328987 0.0009571584403273349 -0.0001109333186748524 -0.1995108663166125 0.0009377678070430381 -0.0002221908392105559 -0.1996144385978044 0.0007970378203620659 -0.0003711622145034148 -0.1996060829759204 0.000586505966476676 -0.0002065770112991308 -0.1997334923716739 0.0005671153331923792 -0.0003178345318348342 -0.1998370646528659 -0.0001276283839255481 8.097485246033885e-05 -0.1995822035027005 0.0001929024497499908 4.013858533841586e-05 -0.1999301920328058 0.0008422057113210923 -5.305971297032196e-05 -0.1992506527996036 0.0006090899119561891 -4.752576053258439e-05 -0.1995557772835155 -5.910120484908641e-05 7.671132941241678e-05 -0.1992480052375779 -0.000105044438446035 0.0002400261032268853 -0.1994044884145421 -0.001569600793408456 0.0006605455695124304 -0.1987105054521822 -0.00126500445721386 0.0004335139706537929 -0.1989779315638672 -0.001310947690810809 0.0005968287444682614 -0.1991344147408314 -0.003053262235461747 0.001031823119563404 -0.1982299067482897 -0.001028167130316517 -0.0005215318934327055 -0.1996339873122994 -0.0002249339035331162 -0.0001258881509236112 -0.1999983448139754 -0.00171814805145199 -0.0002317279054892841 -0.1991491923040035 -0.001963378926192623 -0.0001206541306485975 -0.1987622571651415 1.070823706095185e-20 2.228139080929551e-21 -0.2 -3.607209005905805e-21 -7.445689826511623e-21 -0.2 1.070823706095185e-20 2.228139080929551e-21 -0.2 0.0001929024497499907 4.013858533841586e-05 -0.1999301920328059 0.0005157683005787406 0.000348536418102384 -0.1999937118675943 0.0002578841502893703 0.000174268209051192 -0.1999968559337972 0.0004507866000393611 0.0002144067943896079 -0.199927047966603 3.423959986687545e-05 0.0001581788843380579 -0.1999108577731431 -0.0002772623285237587 2.532420925549124e-05 -0.1995416017079193 -0.002736992445689692 0.000258067982823526 -0.1982585157000543 -0.001472322839990274 0.000294000353193034 -0.1982877703837126 -0.00121636548050477 0.0002502413624940948 -0.1987665640296324 -0.003002989087411079 0.0004198825355029676 -0.1977909912167971 -0.003004623258752657 0.0008485505114037064 -0.1980185392140549 0.001556591101260699 -0.0004584106185862524 -0.1992121092559214 0.000769171384031692 -8.993741462742902e-05 -0.1995804154328988 0.001167690294212725 -0.0002755185218791364 -0.199383456920859 0.0008196217658415792 -0.0002121109637368684 -0.199428367887762 1.070823706095185e-20 2.228139080929551e-21 -0.2 0.001536874383126296 0.0001688664343906925 -0.1991631381452063 0.0007684371915631481 8.443321719534624e-05 -0.1995815690726031 0.0009613396413131388 0.0001245718025337621 -0.199511761105409 0.0009564242478587912 6.343731314792283e-05 -0.1995120199563169 0.0006140053054105369 1.360872885325489e-05 -0.1995555184326077 -0.0003636975410436819 0.0003037429282710542 -0.198980579125893 -0.001520961816699365 0.0004772729613527322 -0.1984991379179474 -0.002296447374702274 -0.0005014834970747672 -0.198786489988352 3.295024675625409e-05 4.838005812758079e-05 -0.1999952007477726 -0.0006950986818068657 -0.0001407025270065359 -0.1996097544890889 -0.003760041815334816 0.0001670426043407777 -0.1977979535149688 0.0002578841502893702 0.000174268209051192 -0.1999968559337971 -0.0002122806279843793 0.0001594538329682674 -0.1996082656089107 0.000870036803257949 0.0001716197706499167 -0.1992469277559329 0.0006279208513789653 0.0001259484706633742 -0.1995536559107723 -3.514637664477511e-05 7.099550924203371e-05 -0.1992348735530799 -4.518565888065809e-05 0.0001890510712225361 -0.1992461427157425 -0.001206326198268887 0.0001321858005135923 -0.1987552948669698 -0.006068888296028553 0.001574975541932905 -0.1965103061549363 -0.003770605568009414 0.0009344879475629694 -0.1973990382693245 -0.005301271815430218 0.001060370129872903 -0.1969022591024089 -0.005302905986771796 0.001489038105773642 -0.1971298070996668 0.00118593862741004 -0.0005540543112105308 -0.1994347353109828 0.00153760857559484 -5.504197432082774e-06 -0.1991619845055019 0.001190274239692238 -0.00011646727111259 -0.1992057418327006 -0.000386281486523195 0.0001446916775045078 -0.1991582942140513 0.0007684371915631482 8.443321719534627e-05 -0.1995815690726032 0.001189540047223694 5.790336071018527e-05 -0.1992068954724049 0.0008561212572895207 5.928002883979737e-05 -0.1992487902777683 -0.0003150585643345908 0.000120470320111356 -0.1987692115916581 -0.003819244544718504 0.001117760555722668 -0.1976104058035593 -0.003183010373054573 -0.001083421253634828 -0.1985737455456348 -0.001816439090060402 -0.0006675987777410253 -0.1992852175867928 -0.002394738413310687 -0.0009373543693265084 -0.1989225152711414 -0.003084719334446161 -0.000647550381383087 -0.1984377202628455 -0.0009366915389312332 -0.0003531511283429496 -0.199529815000307 -0.0006932796729987329 -0.0003024637150950861 -0.1997632523141289 -0.0009385105477393663 -0.0001913899402543994 -0.199376317175267 -0.001961559917384491 -0.0002824153187371476 -0.1989157549901815 -0.004560606867553219 -0.0002363694842374504 -0.1972534827148171 -0.002750468212050359 -0.0001329991182016498 -0.198238151032522 -0.003773517581695483 -0.0002240244966843981 -0.1977775888474366 -0.004547131101192552 0.0001546976167877254 -0.1972738473823493 0.001622934156194129 0.0006853589259413937 -0.1993946396310043 0.0008114670780970644 0.0003426794629706968 -0.1996973198155022 0.001069351228386435 0.0005169476720218888 -0.1996941757492993 0.001004369527847055 0.0003828180483091127 -0.199627511848308 0.0006929025519183448 0.0002600780943761504 -0.1996203198117636 -0.0003011430183661625 0.0002328100619214753 -0.1987673490698227 -0.001447287713235586 -2.137509609392376e-06 -0.1982514543222778 -0.001193808634891542 -1.588313088762081e-05 -0.1987371368362524 -0.00145980527661293 0.0001459314217918208 -0.1982696123529952 -0.002990471524033735 0.0002718136041017544 -0.1977728331860797 -0.006082933006879089 0.0006592339927822755 -0.1959861700532097 -0.003777627923434681 0.0004766171729876547 -0.1971369702184611 -0.005308294170855486 0.0006024993552975883 -0.1966401910515456 -0.006075910651453821 0.00111710476735759 -0.196248238104073 0.003100836247856826 -0.001057291811654406 -0.1985834853778396 0.002319589507960105 -0.000618583320454632 -0.1988721581218185 0.00233783784115742 -0.0008971191097860263 -0.1989234365119424 0.001948937034109446 -0.0007142270130789104 -0.19909478417688 0.003084514835903138 -0.0002846051466940611 -0.1982969505729229 0.002311428801983261 -0.0002322399879744595 -0.1987288907193602 0.001963360273612115 -0.0001688324298321915 -0.1987738016862632 0.001940776328132602 -0.0003278836805987379 -0.1989515167744216 0.001289676714684161 -0.0003977080611027671 -0.1987408743351136 0.001065941213002627 -0.0002253838870365445 -0.1989957635673586 0.001043357267523113 -0.0003844351378030909 -0.199173478655517 -0.0001399620393621474 0.0001314187542048316 -0.1987256898936479 0.001579904269660213 0.0004271126801660431 -0.1992788888881053 0.001203455593192123 0.0001702431025203046 -0.1992050329505696 0.001342671387451001 -3.53084361721889e-05 -0.1982721822759439 0.001092438549386046 -4.418407457125543e-05 -0.1987614175377737 -6.482572626963657e-05 0.0001293459585104225 -0.1982799763298282 -0.0001134647029787277 0.0003126185666701207 -0.1984913438640631 -0.002072594399922838 0.0007539874671365921 -0.1974938253935217 -0.001772458619956556 0.000523993910164813 -0.1978907978886171 -0.001821097596665647 0.0007072665183245111 -0.198102165422852 -0.004070741347975695 0.001164481504534748 -0.197002065774229 -0.002059850955992903 -0.0007182861909888888 -0.1990517802729709 -0.0002104616191762463 -2.307355120282793e-06 -0.1997617634339506 -0.002748649203242226 -0.0002947603062902 -0.1983916488575621 -0.003003947290394402 -0.0001192534969234214 -0.1977524685185474 0.001246485479726039 0.0004284893482956552 -0.1993207836934686 0.001033052561720142 0.00053179136113488 -0.1995072911129022 0.0007744104311494416 0.0004401638896186321 -0.1997505014902483 0.0009515446824890458 0.0003517055658923984 -0.1993771094344176 4.636150258632165e-05 0.0002510813044845154 -0.1993650552315646 -0.0002886254549888182 8.474113052026217e-05 -0.1987491910391053 -0.003765110360057337 0.0003285482415864416 -0.1971188121877437 -0.001979918376260258 0.0003727864382634998 -0.1969912825263918 -0.001726120608125266 0.0003333933957282669 -0.1976395264550522 -0.004031425691569673 0.0005160102155228876 -0.1964887262898007 -0.004024403336144406 0.0009738809900982023 -0.1967507943406641 0.003092675541879982 -0.0006709484791742335 -0.1984402179753812 0.002310694609514718 -5.78693561516843e-05 -0.1987300443590646 0.00218709577529365 -0.0003411566038984141 -0.1985189124540183 0.001316174051067581 -0.000216508248637478 -0.1985065283055288 0.003098068496438804 0.0003179959133118824 -0.198296589144139 0.00231747143978255 0.0002434311738512874 -0.1987298636446727 0.001984052649848377 0.0002448078419808995 -0.1987717584500359 0.001970137103879948 0.0001324681001707802 -0.1987736209718713 0.001106354095354475 6.815566723886391e-05 -0.1987595550159384 -0.0003649615062359188 0.0003593395154822016 -0.1978830038347328 -0.002026256388091548 0.0005633869527000459 -0.1972425539599568 -0.003871808620303896 -0.0006598953689361393 -0.1979136141302259 4.818051139445466e-05 8.932011639596523e-05 -0.1995185530566046 -0.001191989626083409 -0.000177644318976171 -0.1988906346612924 -0.005321769937216154 0.0002114322542724125 -0.1966198263840134 0.001327993358957135 0.0006085751435381368 -0.1994509653719533 -0.0002071175757577216 0.0002648269257627438 -0.19887937271759 0.001384414042167136 0.0002552877910326511 -0.1982601336116775 0.001127225422712542 0.0002134537808412839 -0.1987535306838052 -3.143683553422474e-05 0.0001265751407116293 -0.1982557939669777 -4.395439891156905e-05 0.0002746440721128425 -0.198273951997695 -0.001713603044747922 0.0001853244643270537 -0.1976213684243348 -0.007570428881567302 0.001693686448585544 -0.1949575569646926 -0.00477517362891378 0.001033236443424522 -0.1959744197455422 -0.006826680944223194 0.00117646022068391 -0.1954718635089511 -0.006819658588797926 0.001634330995259224 -0.1957339315598144 0.002195256481270494 -0.0007274999363785865 -0.1986621798564766 0.003091291666170971 1.669538330891066e-05 -0.198296769858531 0.002213593111677069 -0.000159956791433125 -0.1982845664244334 -0.0003914588426193384 0.0001781397030169124 -0.1981173498643177 0.002360501326316467 0.0005016774196266381 -0.1988456143875717 0.002220369941944903 0.0001413437385698468 -0.1982843857100414 0.001363542714809068 0.0001099896774302311 -0.1982661579438107 -0.0003186234944046285 0.0001687390010456554 -0.1976317324011678 -0.00482151164074507 0.001223836957861068 -0.1962256911791072 -0.004732918522136846 -0.001179028400976993 -0.1976428885146302 -0.002834805030534039 -0.0007660897646599714 -0.1985863517574686 -0.00395796444759571 -0.001131224827305911 -0.1981083170301325 -0.004646762694845033 -0.0007076989426072219 -0.1974481856147236 -0.001430738792704089 -0.0003741325490977334 -0.1986614809613801 -0.001183715165817661 -0.0003636418387203415 -0.1990956479808436 -0.001439013252969838 -0.0001881350293535629 -0.198456467641829 -0.002995672830128654 -0.0003052510166675919 -0.1979574818380986 -0.006118824465495068 -0.0002170210306337955 -0.1959417593470081 -0.003783056089365326 -0.0001095792701215939 -0.1970966068346429 -0.005339715666524143 -0.000226695257435623 -0.1965976210309126 -0.006100878736187079 0.00022110648107424 -0.1959639647001089 0.00322272560234046 0.001073910751871356 -0.1986480542673544 0.002422829879267294 0.0008796348389063748 -0.1990213469491793 0.002127889082030301 0.000802851056503118 -0.1990776726901283 0.002046381202799204 0.0006227652612606364 -0.1989474910116437 0.001208733301943639 0.0003935395760837655 -0.1988837123622899 -0.0002977521670465611 0.0003140371146480755 -0.1976257080690347 -0.001953183827862564 4.255183243709202e-05 -0.1969451666703897 -0.001700235770549075 2.020716141384982e-05 -0.1975983104963338 -0.001966551102061411 0.0002076691353502959 -0.1969682245983908 -0.004018058417370826 0.0003508929126096837 -0.1964656683617997 -0.007604258832056415 0.0007542288717253149 -0.1943863114011472 -0.004792088604158336 0.0005635076549944073 -0.1956887969637695 -0.006843595919467751 0.0007067314322537952 -0.1951862407271784 -0.007587343856811859 0.001223957660155429 -0.1946719341829199 0.004602329134054252 -0.001196668809408657 -0.1976730299858678 0.003843421984978695 -0.0007406369780513592 -0.1979849902793954 0.003851582690955539 -0.001126980310531532 -0.1981282576818537 0.002946002924369206 -0.0007971884352557122 -0.1982069521604907 0.004622328160483769 -0.0003259781575460636 -0.1972434357368337 0.003853421498193454 -0.0003052916521200623 -0.1977701931548783 0.002982499773967385 -0.0001806432968591263 -0.1977578090063888 0.002956002437583965 -0.0003618431093244154 -0.1979921550359737 0.00178659303044369 -0.0003810846647780148 -0.1975163173388445 0.001564632208947346 -0.0002081965504751018 -0.1978942498073942 0.001538134872563926 -0.0003893963629403909 -0.1981285958369791 -0.0001430006847395738 0.0001864514011792886 -0.1975050713661831 0.003160397049389632 0.0006959533325916193 -0.1984723217057467 0.00224124126930297 0.0002866418521722667 -0.1982783613779083 0.001850603941515098 2.442114941195341e-06 -0.1969643201581005 0.001596637664483049 -1.643316061549678e-05 -0.1976182512170222 -6.465721737257976e-05 0.0001876142766023476 -0.1969778013422461 -0.00011099522920387 0.0003782147910388937 -0.1972290727758111 -0.002560987615932576 0.0008290302947435766 -0.1959318629482511 -0.002270452996096417 0.0006009083665035382 -0.1964615727373214 -0.002316791007927707 0.0007915088809400843 -0.1967128441708864 -0.005065708248749939 0.00126135837166456 -0.1954447099564718 -0.003081828657420467 -0.0007765804750373632 -0.1981521847380051 -0.0001988431154919734 7.882940601857332e-05 -0.1990843860371412 -0.003774781629099578 -0.0002955767898657644 -0.1973016201541941 -0.004036004146678816 -8.723459909835171e-05 -0.1964434630086989 0.002303569822253798 0.0006645992714520037 -0.198454093939516 0.001544898510859068 0.0006432575821584187 -0.198617329971011 0.001288975536289605 0.0005875244716466493 -0.1990623105419566 0.001464656276513102 0.0004492726865955349 -0.1984387317913443 4.880539881174119e-05 0.0003205600362745132 -0.1984343921466444 -0.0002843848928477137 0.0001489198117348716 -0.1976026501410336 -0.00477872132995949 0.0003983903520812035 -0.1956657390357684 -0.002477450836440368 0.0004455387381325582 -0.1953739946433557 -0.002228684606350313 0.000409162588198029 -0.1961826385848737 -0.005040854834248392 0.0005998838049289365 -0.1948801530222515 -0.005023939859003835 0.001069612593359051 -0.1951657758040241 0.00461232864726901 -0.0007613234834773605 -0.1974582328613508 0.003860198328461286 -3.991122117090619e-06 -0.1977700124404864 0.00320446059546373 -0.0003535314111620392 -0.1973798765378391 0.001818598485979395 -0.0001893212749184097 -0.1972403187484725 0.004653573752725247 0.0004372563822470109 -0.1972321363183561 0.003875821124582025 0.0003776261477794466 -0.1977643627312475 0.003018993897446191 0.000346272086639831 -0.1977461349650168 0.002998122570088124 0.000200973973037411 -0.19775215929715 0.001617508991841117 0.0001288649529869232 -0.197612226884889 -0.0003551918372087388 0.0004157362048423859 -0.1964480915531758 -0.002519219226186472 0.0006372845164380673 -0.1956529287958034 -0.005425871493815957 -0.0006980247158053943 -0.1967923239308191 5.707985907748929e-05 0.0001345625165303427 -0.1986394054661956 -0.001691961310283326 -0.0001657903583303207 -0.1978033238158849 -0.006861541648775741 0.0002686039205457596 -0.1951640353740777 0.002383812056599764 0.0008585841670148873 -0.1986326921191827 -0.000204142658501748 0.0003429047072977554 -0.1977812483207004 0.001900855448903054 0.000329811627493072 -0.1969409848573679 0.001642634745535095 0.0002925497092628616 -0.1976005592345227 -2.616418947975466e-05 0.000186181729965082 -0.1969430757638788 -3.953146367860212e-05 0.0003512990328782859 -0.1969661336918798 -0.002215317332151466 0.0002440452852848251 -0.1961595806568727 -0.009034016063168076 0.001778845115131794 -0.1930901341159283 -0.005755733449804222 0.001112191926632176 -0.194232064379642 -0.008319137447612245 0.001266536993428554 -0.1937382227585377 -0.008302222472367688 0.001736265781858669 -0.1940238455403104 0.003194461082248971 -0.0007888767370933361 -0.1975946736623562 0.004637950956604507 5.563911235047364e-05 -0.1972377860275949 0.003236466050999433 -0.0001617680213024341 -0.1971038779474671 -0.0003871972927444426 0.0002239728149827808 -0.1967240901435478 0.003938149677532853 0.0007555835670591836 -0.1979400952928553 0.003252088847120172 0.0002198492485941031 -0.1970982282382283 0.001875729695209077 0.0001661268712171337 -0.1969526525077342 -0.0003134234474626345 0.0002239904265368768 -0.1961691574007281 -0.005797501839550325 0.001303937704937685 -0.1945109985320897 -0.006256773215414063 -0.001183112465710601 -0.1964034536310042 -0.003843756004059075 -0.0007786225074041673 -0.1975324672961921 -0.005494845868775454 -0.001181070433343797 -0.1970231710728172 -0.006187798840454565 -0.0007000667481721985 -0.1961726064890061 -0.001921930655537145 -0.0003512528327967635 -0.1974243844893313 -0.001676334724120617 -0.0003626926909472485 -0.1980429327253557 -0.001937557241699854 -0.0001543505001798358 -0.1971847755798605 -0.004020377560516106 -0.0002841369317152795 -0.1966830719181697 -0.007645484353600929 -0.0001692424944246832 -0.1943382890335286 -0.004799334090731746 -6.334533099379556e-05 -0.1956417278519591 -0.006882154409547998 -0.0001931317625292393 -0.1951400241902683 -0.007624871592828673 0.0002924931886503159 -0.1943623002173379 0.004788885265134215 0.001305692337756542 -0.1976534829694866 0.004005805433737337 0.001189801544813949 -0.1981507686184205 0.003166891887996641 0.0009744749599574802 -0.1981354064702488 0.003086649653650676 0.0007804900643945964 -0.197956808290582 0.001722876979881061 0.0004865346048257454 -0.1977791574141894 -0.0002882976937686569 0.0003876751828128151 -0.1961574897503618 -0.002451185641272355 9.841259828626542e-05 -0.1953201180665544 -0.002202184734567459 7.048221536167871e-05 -0.1961326423684721 -0.002464318238856361 0.0002719756682094118 -0.1953470563549551 -0.005027722236664385 0.0004263207350057901 -0.1948532147338508 -0.009087991320833939 0.0008368282027868439 -0.1924884164613277 -0.005782721078637153 0.000641183470459701 -0.1939312055523417 -0.008346125076445176 0.0007955285372560794 -0.1934373639312374 -0.009061003692001007 0.001307836658959319 -0.192789275288628 0.0060872356643302 -0.001241661080871446 -0.196454320549148 0.005354781912406984 -0.0007838196192087551 -0.1968488781429909 0.005344782399192225 -0.001219164945140052 -0.1970636752675079 0.003936914347386945 -0.0008113728728247307 -0.1969853189439963 0.006141744281187857 -0.0003246894959229724 -0.1959296495214311 0.005382036220835813 -0.000325333826734518 -0.1965865426291324 0.003996174111351477 -0.0001611236904908886 -0.1964469848397658 0.003964168655815774 -0.0003528870803504936 -0.1967229834301378 0.002278472110028069 -0.0003399439129153721 -0.1959526376542979 0.002064538025771584 -0.0001687508989870883 -0.1964584789061992 0.002032532570235879 -0.0003605142888466935 -0.1967344774965712 -0.0001412577529522532 0.0002445431909141022 -0.1959422503012745 0.004721229508929731 0.0008714743600017763 -0.1974428096439213 0.003277214600814151 0.0003835340048700415 -0.197086560587862 0.002353541941110365 5.249938051591445e-05 -0.195342864723405 0.002102072941312732 2.747074772855489e-05 -0.1961535924407527 -6.195444766500112e-05 0.0002490190593242363 -0.1953584296833803 -0.0001037228374111054 0.0004407648376297455 -0.195637363835828 -0.003034577917957643 0.0008930347290684978 -0.1940417343132773 -0.002756014377199005 0.0006692867336005279 -0.1947078644783165 -0.002797782766945109 0.0008610325119060372 -0.1949867986307642 -0.006034296990562858 0.001335939922100146 -0.1935659342146028 -0.004089351935475603 -0.0007671826492536824 -0.1969139190601677 -0.0001885160723390385 0.0001460023746808276 -0.1980208572301712 -0.004783707504569037 -0.0002602476636107234 -0.1958813367614299 -0.005048334997436642 -3.541494806920884e-05 -0.1948292035500415 0.003344870357018634 0.0008177519826248069 -0.1972972339134272 0.002047007021899301 0.00072177686637524 -0.1973635268998144 0.001795952766379184 0.0006825172242668294 -0.1979904284354127 0.001973931235401178 0.0005257942469341561 -0.1971522558785912 4.691159701836873e-05 0.0003821643494061661 -0.197154346785102 -0.0002751650961846502 0.0002141121128896687 -0.1961305514619612 -0.005769588481053147 0.0004676204005365547 -0.1939042672639411 -0.002962217152935208 0.0005139816453752169 -0.1934476722556547 -0.002719833994687787 0.0004797601917538875 -0.1944108334495052 -0.006025104236884573 0.0006754049240810303 -0.1929680443584912 -0.005998116608051642 0.001146413380253506 -0.1932689031857915 0.006114489972759029 -0.0007831752883972094 -0.1961919850352896 0.005397659016956552 5.628344316201928e-05 -0.1965808929198936 0.004210108195607963 -0.0003323167044191722 -0.1959411435878645 0.002316007025569217 -0.0001437222661997288 -0.1956477511888514 0.006187440991383217 0.0005316253176468695 -0.1959038576804454 0.005420507372054232 0.0004844408499469401 -0.1965679969994007 0.004044148220143136 0.0004307184725699708 -0.1964224212689066 0.004019022466449158 0.0002670337162940324 -0.1964340889192729 0.00212719869500671 0.0001911555040044932 -0.1961419247903864 -0.0003405179884236388 0.0004727670547922061 -0.1946922995183411 -0.002998397535446425 0.0007035081872218573 -0.193744703284466 -0.006951128784507495 -0.0006761774800676422 -0.1953708713322664 6.253818318107817e-05 0.0001852620167892383 -0.1973939556945729 -0.00218655814840475 -0.0001264201172552491 -0.1963722512779428 -0.008366737837217433 0.0003337928541810803 -0.1934133527474281 0.003417946143516758 0.001013734602065891 -0.1975085049346505 -0.000202089309686527 0.0004100947323307527 -0.1963418224831844 0.002407777848004809 0.0003972531136528832 -0.1953074205371685 0.002154316648453931 0.0003635323705729776 -0.1961242026972682 -2.170389663377252e-05 0.0002478328559695743 -0.1953137693018614 -3.483649421777923e-05 0.0004213959258927208 -0.1953407075902621 -0.002706701397103781 0.0003061971218307411 -0.1943838951611045 -0.01045507570220212 0.001841561497863299 -0.1909142625363077 -0.006708646427568662 0.001177771571619258 -0.1921809673959812 -0.009771533511518028 0.001339194850325072 -0.1917013394988177 -0.009744545882685095 0.001810203306497547 -0.192002198326118 0.004182853887179134 -0.0007908024968934093 -0.196203479101723 0.006164592636285537 0.0001034679108619485 -0.1959167536009382 0.004247643111149111 -0.000136095057703529 -0.195636257122418 -0.0003780529039647865 0.0002765454080765628 -0.1949971859837876 0.005488163128258717 0.0009186588277017057 -0.196778670324966 0.004270491466246791 0.000292062349081392 -0.1956233612019252 0.002380659894557587 0.0002248762470843988 -0.1953251426302867 -0.0003043376059124212 0.0002832405129455656 -0.1943952684895298 -0.006744826810079879 0.001367298113465898 -0.1924779984247925 -0.007752359952180888 -0.001138196435206669 -0.1948391967078077 -0.004837145303859016 -0.0007447246340017161 -0.1961317905985695 -0.007004566583797476 -0.001160654450458635 -0.1956213251694059 -0.007698922152890909 -0.0006537194648156761 -0.1945887428706681 -0.002406717543077512 -0.0003035557563234379 -0.1958404756854484 -0.002164324099307328 -0.0003274042945601007 -0.1966324300873898 -0.002428951592174934 -0.0001025715790185862 -0.1955802968760014 -0.00502610094833922 -0.0002363991253740605 -0.1950893823594885 -0.009133345063779831 -0.0001040514275608581 -0.1924356930831574 -0.005792265352526092 -2.819414637296335e-06 -0.1938779055748559 -0.008389414708690379 -0.0001366469609927706 -0.1933869910583429 -0.009110668192306885 0.0003663883876129929 -0.1924620547722425 0.006317781411893575 0.001449771520153321 -0.1963669531883575 0.005553333338513895 0.001377731928954931 -0.1970102180789221 0.004182394216896437 0.00108577419326428 -0.196865240044086 0.004109318430398315 0.0008897915738231963 -0.1966539690228627 0.002227392434952055 0.0005595149900140616 -0.1963354737184914 -0.0002772196524651993 0.00045561737951405 -0.1943775463964116 -0.002938084898172337 0.0001610343554910359 -0.1933866609927658 -0.002694635269722346 0.0001297234768886507 -0.1943533895296601 -0.002950151025553772 0.0003375080004331264 -0.1934171666242103 -0.006013038109503138 0.0004989312791389399 -0.1929375387270467 -0.01052872258759571 0.0009105625959507814 -0.1902946415679534 -0.006745469870265457 0.000712272120662999 -0.191871156911804 -0.009808356954214822 0.0008736953993688126 -0.1913915290146405 -0.01049189914489891 0.00137606204690704 -0.1906044520521305 0.007554541859190468 -0.001231787524955208 -0.1949115766364037 0.006848143070189163 -0.0007782385104390903 -0.1954206130789174 0.006820888761760333 -0.001236724302913327 -0.1956829485927759 0.004916506984609268 -0.0007858657189352902 -0.1954321071453508 0.007635455743408282 -0.000296531779516126 -0.1943279562962048 0.006888600012298069 -0.0003106106377195492 -0.195128802908818 0.004994498842259323 -0.0001220161995001058 -0.1948354105098049 0.004956963926718176 -0.000318237846215749 -0.1951402969752514 0.002761949202216508 -0.0002845169230223047 -0.1940632630469855 0.002557745571663436 -0.0001160087712531951 -0.1947030638851952 0.002520210656122289 -0.0003122304179688384 -0.1950079503506417 -0.0001363143578705672 0.0003042589030230965 -0.1940524986801314 0.006252611201638396 0.0009906984189000951 -0.1961354054344015 0.004297609419694013 0.0004644392156498763 -0.1956056391088069 0.00284572283537111 0.0001094881301565414 -0.1934162896790033 0.002599632388240737 8.099375533622792e-05 -0.1943795772012041 -5.824715878204891e-05 0.0003117348877658791 -0.193431980967329 -9.442754129326651e-05 0.0005012614296125196 -0.1937290119961403 -0.003492826862284382 0.0009495371309998224 -0.1918371038306939 -0.003227522007609795 0.0007317593881875196 -0.1926423880431743 -0.003263702390121012 0.00092128593003416 -0.1929394190719856 -0.006973951282243249 0.001395549314431561 -0.1913756831835008 -0.0050795387476292 -0.0007208760957650533 -0.195339836196628 -0.0001798552605891052 0.0002091105550259011 -0.1966020012926314 -0.005770031303428671 -0.000203803591942148 -0.1941380843843029 -0.006035714980976084 2.849146396508893e-05 -0.1929111770379616 0.004362779629949192 0.0009235123169031019 -0.195837186862763 0.002536579823083769 0.0007838961485253191 -0.195769064410966 0.002291793422491535 0.0007528365074502795 -0.1965662956553902 0.002472178835544289 0.0005905746310891011 -0.1955382424740672 4.26970909057074e-05 0.0004411543734057923 -0.1955445912387602 -0.0002651535250837635 0.0002791437345719596 -0.1943470407649671 -0.006733403742884023 0.0005357984757209087 -0.1918406512803596 -0.003432669561106353 0.0005789514256031013 -0.1912214201879048 -0.00319744335702078 0.0005464665354891591 -0.1923345462217798 -0.00698069607435103 0.0007447570107769414 -0.1907580308779291 -0.006943872631654235 0.0012102564617332 -0.1910678413621062 0.007594998801299374 -0.0007641596522356671 -0.1946197664663043 0.00691144836739575 0.0001175467690653718 -0.1951159069883251 0.005198702472812395 -0.0002905243512692153 -0.1941956096715952 0.002803836018793809 -8.751439643288166e-05 -0.1937397763629944 0.00769051258355453 0.0006077858516360528 -0.1942875446185401 0.006938976787468873 0.0005697055846414611 -0.1950957011494927 0.00504914521577967 0.0005025194826444679 -0.1947974825778543 0.005022027262332448 0.0003301426160759836 -0.1948152046709725 0.002626750341687959 0.0002533706219047123 -0.1943618551080858 -0.0003235520134566359 0.0005295126305781819 -0.1926266967548486 -0.003462748211695368 0.0007642442783014619 -0.1915292620092994 -0.00844285250798036 -0.0006211239313837634 -0.1936374448954825 6.493114000312894e-05 0.0002401701961009406 -0.1958047700482072 -0.002672401220624924 -7.1260700416201e-05 -0.1946135683391071 -0.009831033825687769 0.0004032555841949616 -0.1913651673255554 0.004427180617488671 0.00111683383433932 -0.1960680087996617 -0.0002007525375442838 0.0004724652520081775 -0.1945778627018659 0.002900369454758257 0.0004595483862680372 -0.1933691362631718 0.002654073651381533 0.0004284007499604602 -0.1943382784001701 -1.885772170703956e-05 0.0003102913708795366 -0.1933778986279688 -3.092384908847529e-05 0.0004867650158216271 -0.1934084042594132 -0.003185377229639345 0.0003699928905470686 -0.1923040405903353 -0.01183031694088609 0.001888267416027936 -0.1884389832441248 -0.007631493250996221 0.001233609420815519 -0.1898302017160148 -0.0111795197642409 0.001399415005989359 -0.1893668124060391 -0.0111426963215441 0.001864914456945617 -0.1896766228902163 0.005158245530703488 -0.0007581522239887565 -0.1944874198416946 0.007662984163481407 0.0001556270360599634 -0.1943077504573724 0.005240589289389696 -9.352182467979231e-05 -0.193872122987604 -0.0003654388300339366 0.0003325101039887588 -0.1929501834388397 0.007004146997724053 0.001028778685894687 -0.1953272489034488 0.005268117709462819 0.0003586369908962971 -0.1938519171487717 0.002873046145064684 0.0002845182582122893 -0.1933927129710875 -0.0002934733628676214 0.0003442197778798213 -0.192318854933454 -0.007661571901585234 0.001418902273513879 -0.1901380435374094 -0.009216313190457674 -0.001064545087181801 -0.1929530750499729 -0.005811515366767592 -0.0006840504217526195 -0.1943967753677106 -0.008484336571319282 -0.001101370761194235 -0.1938961358788903 -0.009174829127118752 -0.0005842982573713298 -0.1926943840665651 -0.002883535307278539 -0.0002414641902388029 -0.193926639264508 -0.002645126425178025 -0.0002725099732811204 -0.1948835574749782 -0.002910810102725438 -4.021491737388347e-05 -0.1936566501286369 -0.006008440185529184 -0.0001727578088998305 -0.1931811661738327 -0.01057844105820902 -2.866540155091252e-05 -0.1902358990762639 -0.006758262978190677 6.618447697006172e-05 -0.1918112800345148 -0.009855893060994424 -6.635841455588531e-05 -0.1913357960797106 -0.01055358182290236 0.0004409485971999345 -0.1902652703221087 0.007807421181098283 0.001542049582831746 -0.1947734910728933 0.007062601296495928 0.001495910551492533 -0.1955702221306254 0.005172000502091026 0.001162972865678532 -0.1952712777419296 0.005107599514551546 0.0009696513482423143 -0.1950404558050309 0.002718474638921013 0.0006217222673966782 -0.1945691003370689 -0.0002661500531740478 0.0005192499059355692 -0.1922952782255383 -0.003412189274394027 0.0002272679696275593 -0.19115325665856 -0.003175137086283182 0.0001941511625592976 -0.1922699588256629 -0.00342242941775019 0.0004031096976153303 -0.1911873384232324 -0.006970455930994868 0.0005689152827891704 -0.1907239491132567 -0.01192301857849692 0.0009773461623556632 -0.1878109168825807 -0.007677844069801637 0.0007781487939793822 -0.1895161685352427 -0.01122587058304631 0.0009439543791532222 -0.189052779225267 -0.0118766677596915 0.0014328067891918 -0.1881249500633528 0.008999670165563939 -0.001188314087463962 -0.1930478038980341 0.008317562954486111 -0.0007424229334900439 -0.1936878800971195 0.008277106012377203 -0.001210050806209585 -0.1939796902672189 0.005880809683890223 -0.0007364155052431333 -0.1935555334725098 0.009097737160748822 -0.0002519713269533617 -0.1924301541240625 0.008366596452078552 -0.0002742515532347438 -0.1933790552101337 0.005971729998059966 -7.124159839841015e-05 -0.1929232219015329 0.005929843181482665 -0.0002682441249878332 -0.193246708585524 0.003235427376645368 -0.0002208596050734226 -0.1918596871505484 0.003040575106008238 -5.568573745844056e-05 -0.1926379884147758 0.002998688289430938 -0.0002526882640478636 -0.1929614750987669 -0.000128699742819507 0.0003643387629631999 -0.1918483954906211 0.007748966882326407 0.001074917717233899 -0.1945305178457167 0.005295441019156393 0.000533667118952045 -0.1938283404408559 0.003324422245507659 0.0001698731458651826 -0.1911914162692692 0.003085072540439384 0.000139680638010862 -0.1923038529741362 -5.4123657799347e-05 0.0003744122857341419 -0.191206418228587 -8.420230838836174e-05 0.0005597051384325026 -0.1915142600499816 -0.003934950331312977 0.001000208869760266 -0.1893299184460689 -0.003683809946209664 0.0007895801476816837 -0.1902756693169868 -0.003713888596798678 0.0009748730003800443 -0.1905835111383814 -0.007882633636099531 0.001444238142894101 -0.1888844508450968 -0.006049924248868106 -0.000653004638710302 -0.1934398571572404 -0.0001734777420973846 0.0002712159791432581 -0.194847851837737 -0.006730988182743779 -0.0001350647958948577 -0.192081269170386 -0.006995315166301522 9.930128403832338e-05 -0.190694577867412 0.00535389531792827 0.001000798984549891 -0.1940713136680325 0.003011692199184807 0.0008368139275649882 -0.1938498025392644 0.002774136011134288 0.0008103550380451536 -0.1948094334751152 0.002956030826971532 0.0006481811569165127 -0.1936094694012181 3.680365050623543e-05 0.0004989241415280121 -0.1936182317660151 -0.0002559099098178848 0.0003434081779477982 -0.1922611964608659 -0.007667603926445475 0.0006023070659916112 -0.1894820867705704 -0.003887708721309626 0.0006406921644680232 -0.1887035650385445 -0.003660189141207989 0.0006098217950355622 -0.1899624926132247 -0.007905363649903274 0.0008090191634118431 -0.1882572409605626 -0.007859012831097857 0.001264479790247979 -0.1885712741413347 0.00904870366315638 -0.0007201427072086618 -0.1927389790110483 0.008394124872151677 0.0001779072623413456 -0.1933588493713013 0.006166582268697094 -0.0002364154660133921 -0.1921449206373054 0.003279924811076513 -2.549322960411996e-05 -0.1915255517099088 0.009156965491111222 0.0006709697369503857 -0.1923765691886423 0.008423739037332876 0.0006393777942932191 -0.1933320569035912 0.00602866747293474 0.0005652590616092115 -0.192872852725907 0.006001344163241166 0.0003902289335534635 -0.1928964294338228 0.003112395850132958 0.0003147107660666099 -0.1922802762662205 -0.000305264042902659 0.0005850410078127245 -0.1902606673576691 -0.003911329526311302 0.0008204505171141448 -0.1890167417423067 -0.009897377124333345 -0.0005466052443663569 -0.1915944870631184 6.407844595313441e-05 0.0002976748686630927 -0.1938882209018862 -0.003147862290836283 -7.09811030562182e-06 -0.192539947961534 -0.01125072981835297 0.0004743403804023753 -0.1890234079794223 0.005409556690141545 0.001189431755198367 -0.1943116468060788 -0.00020024853760461 0.0005320409485962737 -0.1925015295989122 0.003376574032847956 0.0005178636096743763 -0.1911334541368278 0.003138471743803106 0.0004887059979712067 -0.1922512951999998 -1.780762077303552e-05 0.0003725657896509678 -0.1911433553976939 -2.804776412919851e-05 0.0005484075176387388 -0.1911774371623663 -0.003649948997851826 0.0004339800670477912 -0.1899284108485523 -0.01315701994303306 0.001922701862059524 -0.1856744012689789 -0.00852236433217134 0.001281697013263774 -0.1871889831537617 -0.01254001926076499 0.001450024012207594 -0.1867426590757798 -0.01249366844195957 0.00190548463904373 -0.1870566922565519 0.006117548771104653 -0.0007045868462686922 -0.1924537455242912 0.009127351325930021 0.000209499204998512 -0.1924033616563524 0.00621107970312824 -4.104909054408953e-05 -0.1918107851966658 -0.0003497614773338041 0.0003896746323434218 -0.1905948027983086 0.008482193336104752 0.001106509659891066 -0.1935750301307678 0.00624069386830944 0.0004204214414077842 -0.1917839927289558 0.003350498139177807 0.0003438683777697795 -0.1911624352030485 -0.0002816432379009835 0.0004052826551666029 -0.1899474906539069 -0.008545985137173015 0.001461455365909895 -0.1875021598575239 -0.01064503459478892 -0.0009732625736828377 -0.1907542409909828 -0.006764284951033727 -0.0006073633819608203 -0.1923404401277454 -0.009930673892623296 -0.00101890383043232 -0.1918536580204778 -0.01061173782649897 -0.0005009639876168751 -0.1904950700336234 -0.003351294000280028 -0.0001710820131322886 -0.1916969977124636 -0.003117414653779284 -0.0002062731016855458 -0.1928118184884858 -0.003381741637337028 2.809297824763534e-05 -0.1914251271855118 -0.006964867529244523 -9.987370734160055e-05 -0.1909664483943637 -0.01197808480342103 5.220664429687714e-05 -0.1877450224670896 -0.007695137038907526 0.0001397373069622182 -0.1894491395628248 -0.01127826293081502 1.177062137298231e-05 -0.1889904607716767 -0.01195055169095897 0.0005147764033262702 -0.1877779696748351 0.009255926562294035 0.001602034262214645 -0.1928715072989935 0.008531673871696158 0.001572041922523195 -0.1938224991859434 0.006133809380739421 0.001219424094889816 -0.1933606549191289 0.006078148008526146 0.001030791324241341 -0.1931203217810826 0.003194133116016381 0.0006773387686196822 -0.1924916283380461 -0.000255567344230835 0.0005792778870711997 -0.1899185095876862 -0.003872399979535203 0.0002948546508829572 -0.1886280614702481 -0.003642294626964615 0.0002610613102552582 -0.1898906590644041 -0.003880054350422415 0.0004677734076754901 -0.1886658132543964 -0.007897709279016063 0.0006361004066193101 -0.1882194891764144 -0.01326832413900174 0.001038119383159548 -0.1850450208506775 -0.008578016430155681 0.0008394057738137855 -0.186874292944611 -0.01259567135874933 0.001007732772757606 -0.1864279688666291 -0.0132126720410174 0.001480410622609536 -0.1853597110598282 0.01041712735704308 -0.001123825505845002 -0.1908717266389748 0.009757432258895953 -0.0006878984163991819 -0.1916509403815186 0.00970839876130351 -0.001156069796654482 -0.1919597652685044 0.006826277366844226 -0.0006723425554592123 -0.1913657068947615 0.01052391023307256 -0.0001977277412981742 -0.1902370066395236 0.009810823696910689 -0.0002248495341257679 -0.191333580381793 0.006924166239290108 -1.392729771649582e-05 -0.1907142114543964 0.006879668804858963 -0.0002092936731857984 -0.191048346895036 0.003697781606909202 -0.0001527776427189433 -0.1893528765518286 0.00351110192620843 8.547751573119696e-06 -0.1902721464105489 0.003466604491777285 -0.0001868186238961829 -0.1906062818511885 -0.0001185843622018871 0.0004237156135206615 -0.1893413974989487 0.00920644602670263 0.001136501999582515 -0.1926240382438179 0.006266769761979589 0.000594416673312381 -0.1917550116627351 0.003788241794511446 0.000231326000212332 -0.1886753022743509 0.003556332020009552 0.0002005995730387573 -0.18993335927181 -4.973346339909009e-05 0.0004360090823401775 -0.1886894336564477 -7.335426840076546e-05 0.0006157674349862992 -0.1890026103602099 -0.004360060732431115 0.001045766814963411 -0.1865313460340811 -0.00412388472687037 0.0008432294897157169 -0.1876174555363128 -0.004147505531872046 0.001022987842361839 -0.187930632240075 -0.008758540337732084 0.001484234338511467 -0.18610287365153 -0.006998164297534472 -0.0005721722934075631 -0.1912256193517232 -0.0001698009005476101 0.0003328659572163498 -0.192773400125864 -0.007664689401850527 -5.943768441770574e-05 -0.1897210100897766 -0.007925242391478113 0.0001735306475899172 -0.1881865419686689 0.006316250297570995 0.00105994893594451 -0.1920024807179106 0.003470938826397164 0.0008836607606923418 -0.1916183793648774 0.003241315512790986 0.000860237344128665 -0.1927340909520709 0.00342375642962256 0.0007007621851833591 -0.1913759167508526 2.937477600156854e-05 0.0005554643651599505 -0.1913858180117187 -0.0002479129733436235 0.0004063591302786667 -0.1898807578035379 -0.00857036205926847 0.0006664870170212526 -0.1868365411604628 -0.00432642046294922 0.0006991012148882536 -0.185902525322035 -0.004107064592129422 0.0006698966896781383 -0.1873030451802898 -0.008797372300975478 0.0008686102990239007 -0.1854737730863563 -0.008741720202991137 0.001310901538473889 -0.185788463295507 0.01047051879505782 -0.0006607766235715882 -0.1905543666392492 0.009840437862091891 0.0002366209978261058 -0.191306787914083 0.00711084591999088 -0.0001752526920085587 -0.1897949415956761 0.003743011700710324 3.927417874669434e-05 -0.1890140894130898 0.01058265244910686 0.0007246762686891745 -0.1901721324380909 0.009869808970109039 0.00069782300281978 -0.1912743508133666 0.006979613240977406 0.0006212699391817754 -0.1906527932874593 0.006953537347307258 0.0004472747072771786 -0.1906817743536801 0.003582407913679701 0.0003745948049433541 -0.1899043782055893 -0.0002859094689598345 0.0006385464075878714 -0.187603324154216 -0.004343240597690167 0.0008724340149258322 -0.1862169356780581 -0.01131155969910497 -0.0004605279646929803 -0.1892496317290362 5.982241305856821e-05 0.0003562893737800266 -0.1916576885386705 -0.003611846989907615 6.188631887533424e-05 -0.1901625295913558 -0.01262320447121138 0.0005451630137282125 -0.1863950216588835 0.006363432694345599 0.001242847511453493 -0.1922449433319354 -0.0002007305765690198 0.0005892577057876494 -0.1901232204175628 0.003835425724022861 0.0005727104686076865 -0.188607534107208 0.003605999878435408 0.0005452870391410313 -0.1898704941220179 -1.848712775617128e-05 0.0004337825597453218 -0.1886177977887281 -2.614149864338259e-05 0.0006067013165378548 -0.1886555495728763 -0.004099410221242212 0.0004969779328856054 -0.1872652933961416 -0.01443273399066314 0.001947003833529802 -0.182631052447598 -0.009379577226806178 0.001323052524209028 -0.1842667888848165 -0.01385052906483244 0.001492561608344675 -0.1838380366491377 -0.0137948769668481 0.001934852847794663 -0.1841527268582884 0.007057454481976142 -0.0006383015742819726 -0.1901123015954017 0.01055328134108971 0.0002634742636955001 -0.1902045695388072 0.007156076013792002 1.679912945707886e-05 -0.1894561544569372 -0.0003311395627609562 0.0004464945861222337 -0.1879421112929548 0.009919289505700448 0.00116335526545191 -0.1915218198685422 0.007185447121809151 0.0004780011344507532 -0.1894237173562209 0.003811833759267154 0.0004020182344100093 -0.1886414181907795 -0.0002690893342188866 0.0004652136075502928 -0.187288913798193 -0.009396397361547126 0.001496385324246606 -0.1845811992408395 -0.01203504123709987 -0.0008710829689366837 -0.1882536555908227 -0.007693167618689946 -0.0005210824910344862 -0.1899753266516431 -0.01134003791594439 -0.0009221727713097607 -0.1895039482909028 -0.01200656302026045 -0.0004094381623199033 -0.1879993390289561 -0.003808929424965802 -9.623611957647476e-05 -0.1891641072461694 -0.003580111712622915 -0.0001336590663543817 -0.1904305524793165 -0.003840664702250503 9.930926565324121e-05 -0.1888960843582088 -0.007893507114193413 -2.201473763979878e-05 -0.1884545648566295 -0.01333005736631073 0.0001354226597539031 -0.1849711630960443 -0.008601228672922965 0.0002151386553184301 -0.1867996122831462 -0.01265407108486588 9.381465202539009e-05 -0.186358092781567 -0.01329919075265623 0.0005867710214567255 -0.1850080919733609 0.01066121535475299 0.001640681949110566 -0.1906656233571598 0.00995857095852351 0.001621358105662605 -0.1917685653280766 0.007066077090575076 0.001262171354901454 -0.1911420013610186 0.007018894693800472 0.001079272779392471 -0.1908995387469938 0.003653182275210012 0.0007281856146500142 -0.1901129567360427 -0.0002454973694631794 0.0006359058417479701 -0.1872550297146215 -0.004317828663357876 0.0003621401130629203 -0.1858195383329913 -0.004095114321446539 0.0003284973819729387 -0.1872237999016197 -0.004322124563153548 0.000530620663975587 -0.1858610318275131 -0.008793076401179805 0.0007001297481112341 -0.1854322795918344 -0.0145624482455479 0.001093250551932328 -0.1820057890891536 -0.009444434354248559 0.0008961758834102909 -0.1839541572055943 -0.01391538619227482 0.001065684967545938 -0.1835254049699155 -0.01449759111810552 0.001520127192731066 -0.1823184207683758 0.01180158747244158 -0.001046157984943503 -0.1883937522000763 0.01116274885275707 -0.0006219428631208388 -0.1893153794198 0.01110935741474233 -0.001084991745394253 -0.1896327394195255 0.007749684539675392 -0.0005994678138312232 -0.1888733143759525 0.01191001833828786 -0.0001381369583096643 -0.1877536183926221 0.01121696428568021 -0.0001679323498039193 -0.1889953125160728 0.007849130066399654 4.65945209513338e-05 -0.1882144603334865 0.007803899972598533 -0.0001454573005143038 -0.1885532474722253 0.004147980458647704 -8.277749011821688e-05 -0.1865536937784417 0.003968111126579575 7.427425504705754e-05 -0.1876144980263963 0.003922881032778452 -0.0001177775664185801 -0.1879532851651352 -0.000106040136891705 0.0004814946624225969 -0.1865425199062614 0.01062193390192992 0.00118267910889987 -0.1904188778976253 0.007209039086564859 0.0006486933686484305 -0.1893898332726494 0.004236324538187052 0.000292261841237262 -0.1858757671990605 0.004012283166349249 0.0002617939207247969 -0.1872755347367057 -4.504796238108356e-05 0.0004956815280627578 -0.1858891462605478 -6.186809712203142e-05 0.0006690143281003364 -0.1862035566165708 -0.004767263895745244 0.001086421703650156 -0.1834522814076157 -0.004546842179347232 0.0008927614592692049 -0.1846774033648253 -0.004563662314088179 0.001066094259306784 -0.1849918137208484 -0.00959999894320419 0.001516712768589979 -0.1830416669276068 -0.007921985331032833 -0.0004836595442565792 -0.188708881418496 -0.000168995299284319 0.0003937123205579335 -0.1903912433055234 -0.008569493395638264 1.959327008871416e-05 -0.1870676351711069 -0.008823943014834301 0.0002487813864084117 -0.1853953507145178 0.007248320539387925 0.001106696208859126 -0.1896365787321839 0.003913231261173331 0.0009257234373950422 -0.1890860613333734 0.003692085043785247 0.000904692099043692 -0.1903522203491254 0.003874328492598096 0.0007492169530013644 -0.1888467977202907 2.04156408190638e-05 0.0006102890441389997 -0.1888570614018107 -0.0002412014696675068 0.0004674252908353034 -0.1872135362200996 -0.009440138454452887 0.0007276953324976244 -0.1839126637110724 -0.004747977335187023 0.0007538913219628028 -0.1828271709563248 -0.004537198899068121 0.0007264962684255282 -0.1843648481391799 -0.009655212790367461 0.0009235709369475655 -0.1824164800227392 -0.009590355662925081 0.001350447577746302 -0.1827291117019614 0.01185580290536472 -0.0005921474716265838 -0.1880736852963492 0.01124633539369736 0.0002932696551897551 -0.1889628754153565 0.008028999398467783 -0.0001104572242139406 -0.1871536560855319 0.004192152498417378 0.0001047421755595225 -0.1862147304887511 0.01196429151124433 0.0007710545482726348 -0.1876792389839316 0.01127347198017559 0.0007478654084809046 -0.1889256857110112 0.007899858617633596 0.0006718825084401606 -0.1881433865455698 0.00787626665287789 0.0005011902742424834 -0.1881772706291412 0.004035875131104956 0.0004324861549224742 -0.1872416506531343 -0.0002654696787790962 0.0006893417724437091 -0.1846640243033381 -0.004757620615466134 0.0009201565128064796 -0.1831397261819702 -0.0126825493017053 -0.0003678301545913903 -0.1866124093434335 5.215091810376461e-05 0.0004147436589092838 -0.1891250842897714 -0.004063379044161838 0.0001329519967432228 -0.1874918227895803 -0.01394625280592931 0.0006143366058431156 -0.1834884760925989 0.007287223307963159 0.001283202693252804 -0.1898758423452666 -0.0002022987010922724 0.0006439317752289812 -0.1874527998331823 0.004276359303241096 0.000624171686608922 -0.1857991211353376 0.004055892513631978 0.0005984410776083042 -0.1872033276212728 -2.073468005838949e-05 0.0004931558998359212 -0.1858093297341644 -2.503057985406201e-05 0.0006616364507485878 -0.1858508232286863 -0.004532902999272449 0.0005580157175128614 -0.184323354644658 -0.01565514814819262 0.001962344455512356 -0.179319725660595 -0.01020156274168982 0.001358117888737579 -0.1810734483084599 -0.01510879819687026 0.001527797503722342 -0.1806627573748743 -0.01504394106942787 0.001954674144521079 -0.1809753890540965 0.007974783965544643 -0.0005644677375308601 -0.187473722989259 0.0119371549247661 0.0003164587949814853 -0.1877164286882768 0.008073171438237457 7.70624414637988e-05 -0.1868146927958413 -0.0003096417185487698 0.0005018221067659696 -0.1850029875930287 0.01131275343299866 0.0012058682486916 -0.1891724311705457 0.008100308024715692 0.0005316581947549485 -0.1867775030914961 0.004256341920714074 0.000458216763923092 -0.1858374441671991 -0.000255826398499985 0.0005230765816000324 -0.1843514690776926 -0.01021120602196893 0.001524383079581256 -0.1813860035341053 -0.0133830494018642 -0.000762376622527092 -0.1854626632327751 -0.008595989413414998 -0.0004293063710517833 -0.1873133852394722 -0.01270904531948203 -0.0008167297957318879 -0.1868581594117989 -0.01335655338408746 -0.0003134769813865945 -0.1852169131644097 -0.004255310227609295 -1.947307457212491e-05 -0.1863396698917062 -0.004032119826287549 -5.785459707429982e-05 -0.1877518885689378 -0.004286569445483585 0.0001713335192453977 -0.1860796041123488 -0.008792683796960011 5.79747925908891e-05 -0.1856554164938753 -0.01463227814375307 0.000218816984724262 -0.1819234826930732 -0.009475053403555474 0.0002904785488935911 -0.1838715105130322 -0.0139811677550319 0.0001771198222390825 -0.1834473228945588 -0.01459736319465049 0.0006560337683282952 -0.1819646358911134 0.01202102369152256 0.00166427112272102 -0.188163401890393 0.01134111952313777 0.001652476535915793 -0.1894145126237764 0.007967127476347945 0.001294997280058031 -0.1886247316118831 0.00792822470777271 0.001118490795664353 -0.1883854679988005 0.004094795282207212 0.0007749475620019821 -0.1874425912343555 -0.0002358090159729634 0.0006890315042858624 -0.1843131460458312 -0.004747647782603264 0.0004278789996458339 -0.1827366704483308 -0.004532738222980569 0.000395009556354377 -0.184278104390661 -0.004747812558895143 0.0005908851608043184 -0.1827819207023278 -0.00965504801407558 0.000760564775789081 -0.1823712297687422 -0.01580332950203325 0.001142779187848215 -0.1787027930720096 -0.01027565341861014 0.0009483352549055087 -0.1807649820141672 -0.01518288887379057 0.001118014869890271 -0.1803542910805816 -0.01572923882511293 0.001552561821680285 -0.1790112593663023 0.01314823507944288 -0.000960348992463693 -0.1856247546697652 0.01252912670886537 -0.0005492429753866787 -0.1866891865311937 0.01247491127594223 -0.001003253488703598 -0.1870092534349208 0.008648107769045291 -0.0005215632412909549 -0.1860892242241035 0.01325260500372773 -7.605763090314659e-05 -0.184987370313013 0.0125813116710078 -0.0001070972946064054 -0.1863704943528175 0.008744464770957389 0.0001081021051670576 -0.1854315687560367 0.008700292731187716 -7.941756051068173e-05 -0.1857705320457274 0.00458499184914083 -1.257794209931695e-05 -0.183473051666312 0.00441065819366394 0.0001398419495689725 -0.1846744094326863 0.004366486153894266 -4.767771610876691e-05 -0.1850133727223768 -9.113602330220686e-05 0.0005369218807754196 -0.1834626665369638 0.01199265760138345 0.001217662835496828 -0.1879213204371623 0.008120325407242715 0.0006976131174407784 -0.1867391800596346 0.004668004242773389 0.0003515493395540169 -0.1828014593059815 0.00445216439048022 0.0003219055903956394 -0.184338613252521 -3.998654620681642e-05 0.0005527203307584098 -0.1828143151311531 -4.962982648592769e-05 0.0007189855216020866 -0.1831268703567986 -0.005155708660619218 0.001122112890293662 -0.1801036268995551 -0.00495184299790312 0.0009380021061282322 -0.1814653989279399 -0.004961486278182231 0.001104267296971909 -0.1817779541535854 -0.01040542840440591 0.001542228672903009 -0.1797116762800751 -0.008819179814736745 -0.0003909248485496084 -0.1859011665622406 -0.0001710394832179817 0.0004531251814114586 -0.1877128656125398 -0.009443794185681184 9.967195507606854e-05 -0.1841315762923897 -0.009689962963178169 0.000323347992185048 -0.182330076570702 0.008148691497381826 0.001144221404664971 -0.1869812615128653 0.004337680063812615 0.0009634220372753134 -0.1862636027819246 0.004125455662492973 0.0009445727373351778 -0.187674832057649 0.004307019683526855 0.0007937968619421178 -0.1860313619586311 9.925700227370049e-06 0.0006627810751691168 -0.1860415705574579 -0.0002356442396810837 0.0005260253431273779 -0.1842678957918342 -0.01027548864231826 0.0007853290937470244 -0.1807197317601702 -0.005151600231979689 0.000804689303512214 -0.1794869459878648 -0.004949788783583355 0.0007792903127375084 -0.1811570584720948 -0.01047746486700647 0.0009737342456802143 -0.1790948695299372 -0.01040337419008615 0.001383516879512285 -0.1794033358242299 0.0132004200415853 -0.0005182033116834198 -0.1853060624913891 0.01260844825748603 0.0003474984586847442 -0.1863333046484723 0.008918798426434279 -4.431778650123175e-05 -0.1842302109896625 0.004626498045957109 0.00016948569872735 -0.1831372554861467 0.01329906080874803 0.0008113276465651095 -0.184904976858677 0.01263167615999618 0.0007911910974188721 -0.1862921079213043 0.00878771005599456 0.0007177496665870157 -0.1853520489970073 0.008767692673467539 0.0005517947439011858 -0.1853903720288688 0.004472181773007242 0.0004878605130814695 -0.1843002902206596 -0.0002438522089229147 0.0007368311149238394 -0.1814525431027683 -0.005153654446299454 0.0009634010969029379 -0.17979528644371 -0.01400766377280863 -0.000271779818901415 -0.1836930729629241 4.118491810166033e-05 0.0004719744813515943 -0.1863016363368154 -0.004501479005106279 0.0002042029625368545 -0.1845381701700185 -0.01521780382289316 0.0006807980862862383 -0.1803131378825414 0.008179351877667586 0.001313846579998167 -0.1872135023361587 -0.0002049838593953246 0.0006956505184605736 -0.1845001366151277 0.004698928302364526 0.0006720821585553242 -0.182716732513825 0.004487643802802811 0.0006481269225821231 -0.1842579268245813 -2.435974011936841e-05 0.0005499805791005791 -0.1827267014810779 -2.452451641124813e-05 0.0007129867402590636 -0.1827719517350749 -0.004949624007291476 0.0006162841515790239 -0.1811118082180978 -0.0168220335572576 0.001969306953118479 -0.1757514533999459 -0.01098681689461864 0.001386998128315347 -0.1776191996939054 -0.01631268152964542 0.001556043070483347 -0.1772271232359777 -0.0162385908527251 0.001965825704315418 -0.1775355895302705 0.008866613464291854 -0.000486463467281505 -0.1845489031680386 0.01327583290623788 0.0003676350078309815 -0.184946173585845 0.008960304623250558 0.0001377458543254351 -0.1838944148094972 -0.0002853584057391939 0.0005547674740971724 -0.1817883392829335 0.01266004225013529 0.001237799384643065 -0.186534189374535 0.008983532525760708 0.0005814384930595632 -0.1838532180823292 0.004683466272568958 0.0005118157490546706 -0.1827590959099033 -0.0002417979946031496 0.0005781193215331154 -0.1811442026469232 -0.01098887110893841 0.00154570992170607 -0.1779275401497505 -0.01468596165627026 -0.0006501123782151481 -0.1823926138008126 -0.009470635941939778 -0.0003347927263936365 -0.1843661418462594 -0.01403450552906723 -0.00070624450037112 -0.1839276385167939 -0.01465911990001167 -0.000215647696745443 -0.1821580482469429 -0.004689249346821979 5.742776829819226e-05 -0.1832349837914261 -0.004472279787215637 1.897734686303369e-05 -0.1847873268415662 -0.004718448564712622 0.0002426533839720131 -0.1829858271198785 -0.009660763745287527 0.0001381223765112271 -0.1825792332422496 -0.01588267390939662 0.0003008446849904649 -0.1786118315734078 -0.01031516084599994 0.0003643618423181494 -0.1806742510108693 -0.01525747602657485 0.0002598308348573634 -0.1802676571332405 -0.01584300170571494 0.0007218119364193399 -0.1786573123227087 0.01333299100442168 0.00167642133166196 -0.18537387593427 0.01267700734797212 0.00167034622719149 -0.1867686389123315 0.00883533553411715 0.001319921684468637 -0.1858187393580973 0.00880467515383139 0.001150296509135441 -0.1855864985348038 0.00451830418308857 0.0008177520979153188 -0.1844901676478748 -0.0002263359648075813 0.0007383857310337691 -0.1811018392508449 -0.005161037573647699 0.0004911074055098702 -0.1793890184623981 -0.004954342678125482 0.000459493202577852 -0.1810628444553644 -0.005156318902813694 0.0006478983545110421 -0.1794379822251315 -0.01048218353784047 0.0008169432966790424 -0.1790459057672038 -0.01698893413387723 0.001186563166530111 -0.1751462086158955 -0.01107026718292846 0.0009956262350211624 -0.1773165773018801 -0.01639613181795524 0.001164671177189163 -0.1769245008439525 -0.01690548384556741 0.001577935059824295 -0.1754488310079207 0.01445279894182318 -0.0008697229929141977 -0.1825757593831049 0.01385270197277546 -0.0004728903119086721 -0.183781564848059 0.01380051701063303 -0.0009150359926889453 -0.1841002570264351 0.009518895395482004 -0.0004411504675067573 -0.1830244055247084 0.0145485592158433 -1.34320300340289e-05 -0.1819469786356886 0.01390058210978552 -4.474483046858776e-05 -0.1834671744743508 0.009608281729308346 0.000169058654759994 -0.1823742189708351 0.009566775532492067 -1.300498606667293e-05 -0.1827100151510003 0.005007770078341568 5.659683020817894e-05 -0.1801219985288508 0.004837887160557478 0.0002040730848810979 -0.1814617289174161 0.004796380963741199 2.200944405443099e-05 -0.1817975250975814 -7.396929113882454e-05 0.0005893548602509204 -0.1801128127142029 0.01331602590658485 0.001243874489113535 -0.1851394263964735 0.008998994555556276 0.0007417049025602168 -0.183810854686251 0.005082655216727053 0.0004083395972536839 -0.1794617917225522 0.004875329729750221 0.0003799444684038503 -0.1811316255142668 -3.447250762631752e-05 0.0006065144503829489 -0.1794743688552085 -3.652672194608261e-05 0.0007652262437736728 -0.1797827093110536 -0.005524605038361861 0.001152638389477495 -0.1764964549860356 -0.005338102635170774 0.0009786638464948545 -0.1779917004869502 -0.005340156849490539 0.001137375639885578 -0.1783000409427953 -0.01117331929780973 0.001560972671297987 -0.1761239541929908 -0.009687605501546119 -0.0002963423049584779 -0.1828137987961194 -0.0001757846415046819 0.0005104249027867528 -0.1847492932866753 -0.0102859616281093 0.0001791362266443286 -0.1809234076824169 -0.01052185574152216 0.0003959760452501676 -0.1790004250179029 0.009015959653393104 0.001174251745108642 -0.1840453042240475 0.004743524127143729 0.0009967605068793408 -0.1831616639398827 0.004540602095478172 0.000980091272077327 -0.1847126333609037 0.004721226214754128 0.0008344213327173325 -0.1829391982268539 -2.061827729766923e-06 0.0007123197532625874 -0.1829491671941068 -0.0002310546356415859 0.0005815947820325972 -0.1810528754881116 -0.01107498585376246 0.0008388352860199906 -0.1772676135391468 -0.005536541518102161 0.0008510942242403264 -0.1758918907718489 -0.005344070875040925 0.0008278917638762702 -0.1776894183798569 -0.01126273782598969 0.001018828695385219 -0.1755190496938722 -0.01117928753767988 0.001410200588679403 -0.1758216720858974 0.01450067907883324 -0.0004415775114741133 -0.1822613690093968 0.01392381001229567 0.0003989478082655404 -0.1834259777471828 0.009778164647092436 2.158240008707504e-05 -0.1810344885822697 0.005045212647534311 0.0002324682137309314 -0.1797918951257015 0.01458439066565964 0.0008461198755774196 -0.1818577430643988 0.01394172573720383 0.0008287237610712645 -0.1833813599615379 0.009641659484012081 0.0007591010170663718 -0.1822872377891119 0.009626197454216513 0.0005988346075657182 -0.1823296011851901 0.004890791759545789 0.000540210877904504 -0.1810892621181886 -0.0002209749108174038 0.0007804889933655896 -0.1779791233542939 -0.005530573278232011 0.001001866306858911 -0.1761941728789423 -0.01528431778283344 -0.0001746338466123416 -0.1805022226871102 2.713739016087539e-05 0.0005270941375887665 -0.1831983238656544 -0.004925143460234839 0.0002742675869040312 -0.1813120011269121 -0.01643580402163693 0.0007437039257602878 -0.1768790200946516 0.009038257565782706 0.00133659091927065 -0.1842677699370763 -0.0002087567232519848 0.0007439339561946055 -0.1812753412011404 0.005102694504216159 0.000716149498404565 -0.1793696498838548 0.004900811403290342 0.0006941158284799445 -0.1810431911988399 -2.917153471576964e-05 0.0006036284519572175 -0.1793793341731265 -2.445286388176506e-05 0.0007604194009583896 -0.1794282979358598 -0.00534878954587493 0.0006711008148750983 -0.1776404546171235 -0.01793121535623279 0.00196812140034015 -0.1719375529870258 -0.01173387843716747 0.001409607812290238 -0.1739147218794374 -0.01746007474505501 0.00157734228343513 -0.1735418808014607 -0.01737662445674519 0.001968714176729314 -0.1738445031934859 0.009730284510082374 -0.0004065630813530094 -0.1813488789559778 0.01456647494075147 0.0004163439227716954 -0.1819023608500437 0.009815607216285178 0.0001974537836098275 -0.1807043851791204 -0.0002584174800101457 0.0006046176098428371 -0.1783092267574432 0.01395869083504066 0.00126127060361969 -0.1836158094993344 0.009833522941193345 0.0006272297364155518 -0.1806597673934755 0.005092674860471606 0.0005622445478291245 -0.1794157208032035 -0.0002269431506875534 0.0006297169107470052 -0.1776768412472005 -0.01172791019729732 0.001560379894908822 -0.1742170039865307 -0.01594082858596335 -0.0005363749424062283 -0.1790548439806425 -0.01031503896639267 -0.000239473587054018 -0.1811449138860343 -0.01531339512111681 -0.0005932436603106882 -0.1807237288907276 -0.01591175124767999 -0.0001177651287078817 -0.1788333377770251 -0.005109534956687777 0.0001331732109967935 -0.1798612356578371 -0.004899392151754878 9.530048964749291e-05 -0.1815481097246316 -0.005135286265167738 0.0003121403082533319 -0.1796251270601176 -0.0104961044330422 0.0002170089479936292 -0.1792365336156224 -0.01707913205322544 0.0003803676939778735 -0.1750466044754091 -0.01112008481343657 0.0004357375497438718 -0.1772178114689036 -0.01648090298131103 0.0003406061894841692 -0.1768292180244084 -0.01703403309355133 0.0007834654302539923 -0.1750964065456523 0.01459473032151352 0.001679198196953479 -0.182306902047385 0.0139638606629676 0.00167780976430772 -0.1838403889908275 0.009669127224328623 0.00133797935191641 -0.1827342829936339 0.009646829311939022 0.001175640177754402 -0.182511817280605 0.004923109315679944 0.0008564550026419528 -0.1812656569118687 -0.000216923506943001 0.0007836218613224457 -0.1776307703278519 -0.0055571707858628 0.0005510611235647212 -0.1757867198406844 -0.005359104179755249 0.0005210842645372957 -0.1775878691515412 -0.005546856151982481 0.0007010776739025239 -0.1758393053062667 -0.01127305245987001 0.000868812145047416 -0.1754664642282899 -0.01811721532054224 0.00122436827147475 -0.1713467592633239 -0.0118268784193222 0.001037731247857538 -0.1736193250175864 -0.01755307472720973 0.001205465719002431 -0.1732464839396096 -0.01802421533838752 0.00159624483590745 -0.1716421561251749 0.01571147542254903 -0.0007765314361254095 -0.1792579116602209 0.01513001731919617 -0.0003949817330797192 -0.1806024451479548 0.01508213718218611 -0.0008231272145198035 -0.1809168355216629 0.0103596227504453 -0.0003599673029586153 -0.1796899550945358 0.01579500755342327 4.837428961564793e-05 -0.1786420536787152 0.01517178338463328 1.74711297908095e-05 -0.1802945161572019 0.01043883138507516 0.0002283569434346658 -0.1790519227006337 0.01040138881588242 5.248555991191343e-05 -0.179382026103783 0.005415261456410611 0.000123843115172312 -0.176511784147268 0.005248958336568832 0.0002660913562129979 -0.17798678793491 0.00521151576737609 9.021997269024547e-05 -0.1783168913380594 -5.467179097562447e-05 0.0006382407523249036 -0.1765041195666518 0.01458956049358658 0.00126265903626545 -0.1820823225558919 0.009843542584937897 0.0007811346869909923 -0.1806136964741268 0.00547963351557021 0.0004619675622604579 -0.1758668587837725 0.005281144366148631 0.0004351535797570709 -0.1776643252531623 -2.845400126597498e-05 0.0006565308932503921 -0.1758793747778107 -2.248576139582533e-05 0.0008073029758689767 -0.1761816568849041 -0.005873225100326339 0.001177730338005973 -0.1726421072204357 -0.005704883309214249 0.001014412281123149 -0.1742669989961423 -0.005698915069344099 0.001165184363741734 -0.1745692811032357 -0.01190222022827956 0.001572925869173061 -0.1722898301037308 -0.01052518177132556 -0.0002016008657047174 -0.1794580398192398 -0.0001830054147720231 0.0005649668589380671 -0.1815114497988599 -0.01109433350495661 0.0002567704524873335 -0.1774539200666231 -0.01131815141954412 0.0004657144087712973 -0.1754166621580467 0.009848712412864839 0.001197673847679022 -0.1808382759656199 0.005130086758000366 0.001025545261577751 -0.1797910270661806 0.004936805442572047 0.001011152884228546 -0.1814763455030316 0.005116390631108263 0.000870847379991158 -0.1795803384750177 -1.547540782366593e-05 0.0007583263335438105 -0.1795900227642893 -0.0002272381408233203 0.0006336053109846431 -0.1775781848622696 -0.01183719305320252 0.0008877146975197358 -0.1735667395520041 -0.005902075900310478 0.000892711323731892 -0.1720526268380086 -0.005719308709206319 0.0008719027739861092 -0.1739722588049287 -0.01200964561042636 0.001058539797603321 -0.1716996930506662 -0.01191664562827163 0.001430416362036021 -0.1719950899125172 0.01575324148798615 -0.0003640785732548808 -0.1789499826694681 0.01518969910954145 0.0004472470825965338 -0.180249898371557 0.01060513450491694 8.610870239398e-05 -0.1775769189129916 0.00544744748599041 0.000292905338716385 -0.1761893214655202 0.01581785406487209 0.0008756829827289143 -0.1785468699465013 0.01520112236526586 0.0008609014291531669 -0.18020230650545 0.01046027428454412 0.0007959162405667395 -0.1789582599151781 0.01045025464079957 0.000642011289991299 -0.1790043308345267 0.005291164009893184 0.0005890585303325115 -0.1776182543338137 -0.0001967957923780642 0.0008198489501332154 -0.1742544830021041 -0.005887650500318408 0.001035220830868932 -0.1723473670292222 -0.01650998031959439 -7.800362421417744e-05 -0.1770507242280258 1.027590065629533e-05 0.0005793592362872722 -0.1798261313620088 -0.005333352871275288 0.0003421171672807573 -0.1778239777492607 -0.01759817368688384 0.0008023679827263118 -0.1731966818693665 0.00986240853975694 0.001352371729265615 -0.1810489645567828 -0.000213542013931217 0.000788303192571236 -0.1777888734534325 0.005487189234605039 0.0007560284329230335 -0.1757678571519455 0.005294941869410598 0.0007360889656637992 -0.1775687535179001 -3.499077562888007e-05 0.0006535447782438773 -0.1757772884963149 -2.467614174856076e-05 0.00080356132858168 -0.1758298739618972 -0.005729623343086639 0.0007218862236483066 -0.1739196733393465 -0.01898055709223073 0.001958812374780843 -0.1678896740833586 -0.0124413164962706 0.001425761849256367 -0.1699711504606836 -0.01854888620638648 0.001591590323127796 -0.1696182166733412 -0.01845588622423176 0.001963466887560496 -0.1699136135351922 0.01056336843947982 -0.0003263441604765487 -0.1778848479037444 0.01580643080914768 0.0004620286361722812 -0.1785944618126082 0.01063732053449674 0.0002551709259380529 -0.1772544562312439 -0.0002289818219578634 0.0006507867265891422 -0.1745769456838518 0.01520629219319281 0.001277440589841197 -0.1804268859969432 0.01064874379022115 0.0006688252724946862 -0.1772068643651369 0.005483411375087625 0.0006089979975917458 -0.175817357967859 -0.0002112211923701334 0.0006773394429961749 -0.1739597428108905 -0.01242689109627853 0.001568271356393407 -0.1702658906518972 -0.01714481088888244 -0.0004226671720487248 -0.1754607635695784 -0.01112717292278511 -0.0001447469805259656 -0.1776609996137077 -0.0165428197374229 -0.0004795210572274766 -0.1772578037751105 -0.01711197147105394 -2.114973903542564e-05 -0.1752536840224937 -0.005514955949420125 0.0002067931840320645 -0.1762296932353972 -0.00531224545305395 0.000169983197514429 -0.1780454644466171 -0.005536063367641463 0.0003789271537983928 -0.1760082065380408 -0.01129704400132278 0.000293580439004969 -0.1756381488554031 -0.01821948909788425 0.0004565244560121025 -0.1712386885642026 -0.01188832994187352 0.0005037927897884118 -0.1735127042024435 -0.01764931057555484 0.0004184460749949879 -0.1731426465198058 -0.01816835220921324 0.0008404463637434264 -0.1712927239137632 0.01580387160951242 0.001673743622409932 -0.1789728870155903 0.01519930096551297 0.001676470909681706 -0.1806398945314877 0.01046697918375639 0.001349644441993841 -0.1793819570408854 0.01045328305686429 0.001194946560407249 -0.1791712684497226 0.005308637996302702 0.0008907868472503922 -0.177779442109063 -0.0002074433328527192 0.0008243698783274628 -0.173910241994977 -0.005935210853969913 0.000607123277653321 -0.1719404701550661 -0.005746190819916356 0.0005790922006090211 -0.1738635949978752 -0.005918643377140195 0.0007499173006926066 -0.1719965484965373 -0.01202621308725607 0.0009157457745640357 -0.171643614709195 -0.0191861001066232 0.001255923205240527 -0.1673156888104538 -0.01254408800346684 0.001074317264486209 -0.1696841578242312 -0.01865165771358272 0.001240145738357638 -0.1693312240368888 -0.01908332859942697 0.001607367790010685 -0.1676026814469062 0.01692082683456234 -0.0006823398996104002 -0.1756825263476918 0.01635791719399281 -0.0003169828049973762 -0.1771622900132035 0.01631615112855568 -0.0007294356678679047 -0.1774702190039563 0.01116804414548648 -0.0002792483922190441 -0.1760971552474799 0.01698923939288829 0.0001083676431859915 -0.1750828861260626 0.01639212347315578 7.83709664008197e-05 -0.1768624699023889 0.01123443645422925 0.0002851676027232247 -0.1754748724549176 0.01120225042464945 0.0001161053791791518 -0.1757973351366653 0.005806410995427543 0.000188472326192485 -0.1726539162345956 0.005643022255498877 0.0003252199442264714 -0.174260387509184 0.005610836225919076 0.0001561577206823985 -0.1745828501909318 -3.340705244939731e-05 0.0006831013320992287 -0.1726480117275156 0.01581086283719225 0.001274713302569423 -0.1787598784810458 0.01065252164973857 0.0008158557078259739 -0.1771573635492234 0.005858258669051502 0.0005118956479205713 -0.1720273653105899 0.005668946092310856 0.0004869316050905145 -0.1739471120471812 -2.190861562948723e-05 0.0007023034858262316 -0.1720399960742992 -7.483215637418047e-06 0.0008448129929632721 -0.1723347362655128 -0.006200895869946635 0.001197100319991211 -0.1685522570594878 -0.006051485885128556 0.001044905821861552 -0.1703024419487482 -0.006037060485136487 0.001187415328998592 -0.1705971821399617 -0.01259072648108868 0.001577956347386027 -0.1682209655714232 -0.01132988341915128 -0.0001079369940083301 -0.1758452284024878 -0.000192434595709879 0.0006161692228049076 -0.1780103601507889 -0.01186722252365219 0.0003316588200220835 -0.1737341908997999 -0.01207734997592708 0.0005318238668327118 -0.1715895793596343 0.01064553042205873 0.001214886027666483 -0.1773703720837679 0.005496747459793118 0.001049496481249069 -0.1761627164399885 0.005313417108896742 0.00103752087141341 -0.1779768717530845 0.005491968347199078 0.0009027624570860515 -0.175965286795967 -3.021166303484061e-05 0.0008002788024068952 -0.1759747181403364 -0.0002240108096824363 0.0006815758552881772 -0.1738541636535058 -0.01256065548029656 0.0009315232414469239 -0.1696280794827599 -0.006247494357745744 0.0009291717610370468 -0.1679803318196927 -0.00607478512902811 0.0009109415423844693 -0.1700164793288506 -0.01271679723218447 0.001092547483138787 -0.1676480103150733 -0.01261402572498824 0.001443992067908945 -0.1679350029515257 0.01695503311372532 -0.0002869861282122043 -0.1753827062368772 0.01640354672888019 0.000492025312957453 -0.176814878036282 0.01139782519415792 0.0001484199846892382 -0.1738684011803291 0.005832334832239523 0.0003501839870565282 -0.1723406407725928 0.01699710731759034 0.0009000458060153725 -0.174982430351381 0.01640748069123122 0.0008878643943721434 -0.1767646501489412 0.01124214827609769 0.000828037119469203 -0.1753751437516632 0.01123837041658028 0.0006810066841379152 -0.1754246445675768 0.00567272395182827 0.0006339620404218024 -0.1738976112312677 -0.0001713186004475664 0.0008544979839558914 -0.1702898111850388 -0.006224195113846189 0.001063136040514129 -0.1682662944395902 -0.01768214999338334 1.692864198168882e-05 -0.1733497260668905 -9.104244813503033e-06 0.0006281448326405669 -0.1761962048376928 -0.005725083401695018 0.0004069582308426927 -0.1740850816952316 -0.01870279460225372 0.0008562238306263145 -0.1692771886873282 0.01065030953465277 0.001361620051829501 -0.1775678017277894 -0.0002192316970883973 0.0008283098794511952 -0.1740515932975273 0.005851904132813808 0.0007913650557922653 -0.1719219749375224 0.005669546683709423 0.0007736967443576493 -0.1738449160447339 -4.165336057805179e-05 0.000699244166722793 -0.1719312225462942 -2.508588374833471e-05 0.0008420381897620787 -0.1719873008877655 -0.006091352605857828 0.0007681475193451839 -0.1699604009873794 -0.0199679507619549 0.001941292818661296 -0.1636198383845876 -0.01310772255985032 0.001435232289849171 -0.1658000851021402 -0.01957702543428905 0.001598608011950911 -0.1654677635975207 -0.01947425392709281 0.001950052596721069 -0.1657547562339731 0.01136361891499494 -0.0002469337867089576 -0.1741682212911437 0.01699317335523932 0.0005042067246006821 -0.1750326582387218 0.0114237490309699 0.0003101316455532814 -0.1735551257183263 -0.0001972424372595457 0.0006927863230918481 -0.1706030866470417 0.01640048946355138 0.001286894714212652 -0.1769776586834857 0.01142768299332092 0.0007059707269679719 -0.1735048978309855 0.005855081400932655 0.0006516303518564183 -0.1719746701240562 -0.0001946178443471202 0.000720533704478809 -0.1700038485651413 -0.01308442331595077 0.001569196569326254 -0.1660860477220377 -0.01829514891782349 -0.000310096532356182 -0.1716219555600545 -0.0119050524336218 -5.165167416205875e-05 -0.1739258243977258 -0.01771997990335297 -0.0003663818522024534 -0.1735413595648165 -0.01825731900785387 7.321396182796025e-05 -0.1714303220621285 -0.005904317504773602 0.0002775418080648514 -0.1723518328280315 -0.005709636727096864 0.000242167496048458 -0.1742907630317144 -0.005919764179371758 0.0004423325428590862 -0.1721461514915488 -0.01206190330132892 0.0003670331320384769 -0.1717952606961171 -0.01930153327153028 0.000528648997710135 -0.1671994464922692 -0.01261837206275009 0.000567886137681728 -0.1695699583236676 -0.01876051118470726 0.0004925867268611188 -0.1692190675282359 -0.01924381668907674 0.0008922861014753309 -0.1672575676513615 0.01695808338635077 0.001660647254347779 -0.1753826811399001 0.0163809774979316 0.001667195438378856 -0.1771777840777452 0.01122741542307194 0.001355071867798424 -0.1757726987899443 0.01122263631047791 0.001208337843635406 -0.1755752691459228 0.005674325796303463 0.0009204307685206673 -0.1740423456887554 -0.0001977951124659677 0.000860268408414656 -0.1699511533786076 -0.006294313974249755 0.0006587906162887991 -0.1678615015040687 -0.006114762414109833 0.00063295694697106 -0.1699009858295674 -0.006270904165997749 0.000793981188662923 -0.1679209166618807 -0.01274020704043648 0.0009573569107646628 -0.1675885951572612 -0.02019348808340487 0.001280953642003553 -0.1630647453799174 -0.01322049122057531 0.0011050627015203 -0.1655225385998051 -0.01968979409501403 0.00126843842362204 -0.1651902170951856 -0.02008071942267988 0.001611123230332424 -0.1633422918822525 0.01807768749212529 -0.0005882653660236944 -0.1718611512105108 0.01753346344250679 -0.0002399488614188514 -0.1734720186682867 0.01749925716334381 -0.0006353026328170472 -0.1737718387791013 0.01194204924377641 -0.0001998965199156047 -0.1722575337225532 0.01812865526797338 0.0001658023923402257 -0.1712803399819931 0.01755894733043083 0.0001370850177631086 -0.1731816130540278 0.01199345696851244 0.0003388490201303984 -0.1716538526462915 0.01196753313170046 0.0001771373592663553 -0.1719671281082944 0.006180166554055663 0.0002499469271001896 -0.1685602080799754 0.006019212611553582 0.0003809212875103804 -0.1702937866952827 0.005993288774741603 0.0002192096266463372 -0.1706070621572855 -1.036465794548554e-05 0.0007235236235457004 -0.1685562325697316 0.01697759535197056 0.001280346530181576 -0.1751825557456406 0.01142450572520208 0.0008457054309038189 -0.1734522026444517 0.006217812404468313 0.0005576815214144737 -0.1679545745262561 0.006038035536759907 0.0005347885846675225 -0.169990969918423 -1.484097663871512e-05 0.0007434266412257601 -0.1679674531729744 8.45826726083871e-06 0.0008773909207028426 -0.168253415792872 -0.006506989515047993 0.001210467221412663 -0.1642389510641789 -0.006377241936396869 0.001069819491224855 -0.1661096414419358 -0.006353942692497314 0.001203783770701937 -0.1663956040618333 -0.01323747013850144 0.001575880020036979 -0.1639293947243833 -0.01209973321129854 -1.627736214566527e-05 -0.171986894194043 -0.0002037850224902416 0.0006635191446569605 -0.17425727463401 -0.01260292538815194 0.0004030954028874932 -0.1697756396601504 -0.01279792362289001 0.000593719806999467 -0.1675304739981689 0.01140499375958229 0.001226006155070022 -0.1736523280387112 0.00584292335635985 0.001068307216470679 -0.1722880698583826 0.005669835408076484 0.001058901848859874 -0.1742253931491856 0.005847413744586829 0.0009298361361314723 -0.1721050223979525 -4.614374880503079e-05 0.0008377152470620001 -0.1721142700067244 -0.0002212049207179728 0.0007250778360405321 -0.1698917382207955 -0.01324390102882731 0.0009698721291461758 -0.1654631234419931 -0.006572099611864029 0.0009601440995750489 -0.1636867151782929 -0.006409796984804886 0.0009446579303060477 -0.1658335234989928 -0.01338279384763445 0.001120548870789301 -0.1633757302791051 -0.01327002518690946 0.001450718459118172 -0.1636532767814403 0.01810317138004933 -0.0002112314868417343 -0.171570745596252 0.01756288129278186 0.0005329240991777992 -0.1731313851666871 0.01215441091101452 0.0002078746597202077 -0.1699202740309843 0.006198989479261988 0.0004038142242573317 -0.1682573913031158 0.0181198569844629 0.0009191115488101533 -0.1711751282946507 0.01755848215102662 0.0009095786774127628 -0.1730787793230159 0.01198588055863835 0.0008552383023012092 -0.1715485516160865 0.0119890578267572 0.0007155035983653623 -0.1716012468026203 0.00603485826864106 0.0006745232886033695 -0.1699382747318892 -0.0001445885552898403 0.0008840743714135682 -0.1660967627952175 -0.006539544563456011 0.001085305660493856 -0.1639628331212359 -0.01879834109467688 0.0001092762326769765 -0.1694107010261618 -3.069707420687556e-05 0.0006729245122677654 -0.1723199513432071 -0.006099315739511679 0.0004681662121768252 -0.1701066671660501 -0.01974751067746757 0.0009048013198568437 -0.1651320959360933 0.01140050337135531 0.001364477235409229 -0.1738353754991414 -0.0002256953089449522 0.0008635489163797392 -0.1700747856812257 0.006196293321222038 0.0008218226420233244 -0.1678432066935873 0.006024098727017923 0.0008065938489077947 -0.1698825908155548 -4.901032651385799e-05 0.0007403066291560617 -0.167852354098828 -2.560051826185289e-05 0.0008754972015301856 -0.16791176925664 -0.006433206793056891 0.0008094673579319239 -0.1657741083411808 -0.02089130974837167 0.001915424009837257 -0.1591404689882849 -0.01373170468011785 0.001437784054706153 -0.1614135920832889 -0.02054239891588826 0.001598188825920405 -0.1611026071841012 -0.02042963025516328 0.001928358414249276 -0.1613801536864363 0.01212892702309048 -0.0001691592194617524 -0.1702106796452431 0.01812425612621814 0.0005424569705751895 -0.1712277341383219 0.01217323383622085 0.0003617419568773497 -0.1696174572541246 -0.0001634114804961646 0.0007302070742564261 -0.1663995795720772 0.01753897018540684 0.001289879401578966 -0.1732789047172754 0.0121688346944656 0.0007383965351123135 -0.1695648514104534 0.006207052862845175 0.0006897520817188991 -0.1678988906099217 -0.0001771436036978576 0.0007589128104947612 -0.1658206448522745 -0.01369914963170983 0.00156294561562496 -0.1616897100262319 -0.01938914011030395 -0.0001994939568503304 -0.1675502611021456 -0.01264672880753877 3.90239256072605e-05 -0.1699510469650886 -0.01884214451406372 -0.0002547952446032562 -0.1695861083311001 -0.01934533669091711 0.0001645775204299023 -0.1673748537972074 -0.00627644839838539 0.0003448354320975748 -0.1682394240443914 -0.006090382951579496 0.0003111886200812131 -0.1702956284362115 -0.006285381186317572 0.000501813024193187 -0.16805046277423 -0.01278899083495783 0.0004367422149038549 -0.1677194352683303 -0.02032301188256027 0.0005962197980956858 -0.162940711589125 -0.01330866292840501 0.0006275052071922424 -0.1654011065465968 -0.01981227257704527 0.0005624343979029104 -0.1650700790406971 -0.02025824998298257 0.0009385867200496193 -0.1630027284845212 0.01805508025908439 0.001640171073995129 -0.1715475436954602 0.01750658182271758 0.001650409164171454 -0.1734651124176801 0.01194900180772212 0.001354239145232904 -0.1719178067769214 0.0119534921959491 0.001215768064893697 -0.1717347593164913 0.006019608338790944 0.0009450649292470018 -0.1700656382759849 -0.0001879031453209954 0.0008909833707991866 -0.1657649609359401 -0.006633631665075907 0.0007056516880779299 -0.1635615633209855 -0.006463972819662831 0.0006822211521833644 -0.1657115324125271 -0.006602865638469967 0.0008328978938264894 -0.1636241392496392 -0.01341355987424039 0.0009933026650407412 -0.1633131543504515 -0.02113725456653968 0.001299203398519994 -0.1586061705133616 -0.01385467708920185 0.001129673749047521 -0.1611464428458272 -0.02066537132497227 0.001290078520261773 -0.1608354579466395 -0.02101428215745567 0.001607313704178626 -0.1588733197508232 0.0191790873605031 -0.0004951229043876165 -0.1678056236240696 0.01865387131423824 -0.0001646602560236954 -0.1695429818030314 0.01862838742631419 -0.0005416941352056554 -0.1698333874172902 0.01267962695727938 -0.0001225879886437135 -0.1681829158520225 0.01921073131055841 0.0002201057634593545 -0.1672457972995393 0.0186696932892659 0.0001929540778997901 -0.1692630686407662 0.01271427185751336 0.0003888936424369141 -0.1676001859128977 0.01269544893230704 0.0002350263452797721 -0.1679030026897574 0.006535480625532456 0.0003078414660150863 -0.1642428172693419 0.006376646515000384 0.00043276149371478 -0.166098695897799 0.006357823589794059 0.0002788941965576379 -0.1664015126746586 1.424555524223194e-05 0.0007591543437138744 -0.1642408841667604 0.01808746862177365 0.001279641311402641 -0.1713613359950555 0.01215807515284247 0.0008704670954167387 -0.169509167494119 0.006557543648281698 0.0005989596846038088 -0.1636602721324313 0.006387678026375005 0.0005783206030091412 -0.1658074233293437 -7.277981791164838e-06 0.0007795518920894289 -0.163673493655362 2.527706661685242e-05 0.0009047134530082358 -0.1639496115983051 -0.006790913546058847 0.001217574570396425 -0.1597146364865434 -0.006681506578961438 0.001088859334985737 -0.1617006758324181 -0.00664895153055342 0.001214020895904544 -0.1619767937753611 -0.01384111164721526 0.001566499290116841 -0.1594275527374141 -0.01283279425434467 7.267073762362221e-05 -0.1678948425732685 -0.0002167625210127695 0.000706571324284127 -0.170263746951387 -0.01329973014047283 0.0004705276150966303 -0.1655900678167582 -0.01347832177381808 0.0006509357430868079 -0.1632511374550553 0.01212568679015322 0.001230996858009227 -0.1696953751945237 0.006168056795147083 0.001081675895225817 -0.1681787838992489 0.006005490075753466 0.001074991555848248 -0.1702334268788158 0.006182175058184561 0.0009517492686245707 -0.1680109952964181 -6.312858955133524e-05 0.0008702332557573081 -0.1680201427016588 -0.000218669171926934 0.000763737165050627 -0.1657023850072864 -0.01388544311580779 0.001002427543298962 -0.1610838669171736 -0.006875202638464563 0.0009853409664967742 -0.1591839981444194 -0.006723651125164295 0.0009727425330359114 -0.1614353566613561 -0.01400622860250212 0.001142272182508384 -0.1588950843288905 -0.01388325619341811 0.001450382488167016 -0.1591622335663521 0.01919490933553076 -0.000137508570464131 -0.1675257104618045 0.01866529414751066 0.0005696086561347539 -0.1692104627970951 0.01287310596804543 0.0002639736147372204 -0.1657443072844406 0.006546512136907077 0.0004534005753094476 -0.1639515447008866 0.019183840861586 0.0009327206183154076 -0.1671362339659148 0.01865184892302445 0.0009259160835627803 -0.1691556811302827 0.01269006709140402 0.0008772716301693659 -0.167489720329751 0.01270082663302716 0.0007452010698649407 -0.1675454042460854 0.006376918484751868 0.0007103911633135666 -0.1657517394130092 -0.0001166849488885746 0.0009082671275001168 -0.1616874543094873 -0.006833058092261705 0.001101457768446599 -0.1594493173154814 -0.01985607599643211 0.0001983629206226776 -0.1652454863456353 -5.419580161915294e-05 0.000713255663661696 -0.1682091039718201 -0.006455040031730648 0.0005252435600877523 -0.1659004936826884 -0.02073013322454997 0.0009477115983078399 -0.1607734410512433 0.01211156852711574 0.001360923484610473 -0.1698631637973545 -0.0002327874349644116 0.0008936637916518734 -0.1658701736101172 0.006519779292774638 0.0008470965436046981 -0.1635432986100411 0.006358036306998337 0.0008344595928140113 -0.1656932526518142 -5.692618615063408e-05 0.0007763741158413139 -0.1635524309655133 -2.61601595446955e-05 0.0009036203215898736 -0.163615006894167 -0.006754417151770234 0.000845496327287352 -0.1613727807327024 -0.02174856353213243 0.001881053921173083 -0.1544644107878686 -0.0143118830852985 0.001433197443834929 -0.156824204466144 -0.02144290904933605 0.001590128659846538 -0.1565352906506151 -0.02131993664025205 0.00189823896550517 -0.1568024398880767 0.01285728399301778 -9.364071918626512e-05 -0.1660242204467057 0.01919728608607221 0.000576413190887381 -0.1671910156327271 0.01288413747942005 0.0004095327240315816 -0.1654530347159853 -0.0001277164602631951 0.0007627080182057554 -0.1619787268779426 0.0186194605603352 0.001286445846155268 -0.1693418888306875 0.01287069225493385 0.0007658401514596081 -0.165398253049173 0.006538661470528168 0.0007230281141042535 -0.1636017853712362 -0.0001588294950914319 0.0007921503255502914 -0.1614221351384253 -0.01426973853909564 0.001549314245784754 -0.157089523637206 -0.02042412283609703 -9.149106451855021e-05 -0.1632578437263665 -0.01335028561724121 0.0001266721837895123 -0.1657486338853789 -0.01990663147320049 -0.0001454925106844403 -0.165404052414256 -0.02037356735932865 0.0002523643667885678 -0.1630992776577457 -0.006630202805118253 0.0004082130666445439 -0.1639045861154142 -0.006453325601751821 0.0003765242493710593 -0.1660720050799028 -0.00663191723509708 0.0005569323773612369 -0.1637330747181999 -0.01347660734383926 0.0005022164323701147 -0.1634226488522696 -0.02128163953891451 0.0006588270287129689 -0.1584747865208075 -0.01395763560199521 0.0006822393583954493 -0.1610181749208965 -0.02080232571073739 0.0006275234134043273 -0.1607077490549662 -0.02120944705272709 0.0009790152136164815 -0.1585404785170846 0.01909262247534609 0.001612387852208593 -0.167479138030582 0.01857385136721524 0.001626279463101861 -0.1695133408630211 0.01263033963524658 0.001347031873717205 -0.1678289609649154 0.01264445789828406 0.001217105247115959 -0.1676611723620846 0.00634391804396086 0.0009643862194152576 -0.165861041254645 -0.0001777116728449626 0.0009162187550507362 -0.1613636483772302 -0.006952312800818678 0.0007473726461068272 -0.1590529068878301 -0.006792972232947292 0.0007265121670923785 -0.1613072351044078 -0.00691375771964162 0.0008663568063018007 -0.1591184525161247 -0.01404478368367918 0.00102328802231341 -0.1588295387005958 -0.02201525502338927 0.001310447604401696 -0.1539526909254055 -0.01444522883092692 0.001147894285449235 -0.1565683445349124 -0.02157625479496447 0.001304825501460845 -0.1562794307193835 -0.02188190927776085 0.001595750762787389 -0.1542085508566371 0.02022219392501217 -0.0004035170069801081 -0.1635281158753805 0.01971646261778529 -9.170562176037676e-05 -0.1653869565874599 0.01970064064275764 -0.0004493199556838622 -0.1656668697497251 0.01337883727527231 -4.783777048251089e-05 -0.1638854665723612 0.02023299481124897 0.0002708319693486544 -0.1629911289666625 0.01972186306090369 0.0002454688664040044 -0.1651184631331009 0.01339526922976534 0.0004348958269762316 -0.1633257005495469 0.01338423771839072 0.0002893367176818704 -0.1636169731180022 0.006871310647738201 0.0003618189464748268 -0.1597142760602853 0.006714427148009949 0.0004803893155393178 -0.1616872740963582 0.006703395636635329 0.0003348302062449565 -0.1619785466648135 4.019855083967723e-05 0.0007896967584356257 -0.1597144562734143 0.01913823166846605 0.001272554235262001 -0.1673076859982484 0.01285181007718032 0.0008899085809600529 -0.1653397662879779 0.00687667508924985 0.0006354309369164186 -0.1591567424514616 0.006717109368765774 0.0006171953107601137 -0.1614085072919464 7.362253926440979e-07 0.0008103859517065963 -0.1591703702979405 4.288077159550138e-05 0.0009265027536564217 -0.1594356894690025 -0.007052102213048342 0.001218201382115479 -0.1549921799530404 -0.006963652425756452 0.001101771174306126 -0.1570880890487299 -0.006921507879553594 0.001217887976255951 -0.1573534082197919 -0.01440033287259038 0.001549627651644281 -0.1547282953704545 -0.01352716282060764 0.0001583610010629969 -0.1635812149208903 -0.0002310730049855845 0.0007449444809351804 -0.1660416850073315 -0.01395592117201638 0.0005335200476787563 -0.1611896863181109 -0.01411697616986659 0.0007030998374098979 -0.1587638467043188 0.01280620088406036 0.001229742197906646 -0.1655112183203115 0.006471607036396963 0.001089324720350765 -0.1638469439038835 0.006319831915772024 0.001085500307788291 -0.1660128639015662 0.0064956931645858 0.0009682106319777314 -0.1636951212569623 -8.101231433947122e-05 0.0008974882042143473 -0.1637042536124345 -0.0002162667540220198 0.0007972345948557626 -0.1612981027489356 -0.01448378391210397 0.001028910125254261 -0.1565027989066178 -0.007156120012763219 0.001004522879129987 -0.1544848983195066 -0.007015661325613891 0.0009949319228133805 -0.156834448231963 -0.01458568751807624 0.001157485241765841 -0.154218794622456 -0.01445234177244782 0.001442788400151535 -0.1544746545536876 0.02022759436813058 -6.634251881572681e-05 -0.1632596224210215 0.01970841783641749 0.000601776293832031 -0.1650636814662887 0.01355215272949359 0.0003163254579117406 -0.1613527025134739 0.006873992868494026 0.0004986249416956227 -0.1594355092558734 0.02018681669497973 0.0009406911796812266 -0.162877543575867 0.01968532877828287 0.000936705898998317 -0.1650068887708909 0.01335329799387719 0.0008938938616429623 -0.163210421092954 0.01337218017163072 0.0007698254321425178 -0.1632689078541492 0.006698227191012244 0.0007412637402605583 -0.1613500205307513 -8.7713561899246e-05 0.0009268161595159485 -0.157074461202251 -0.007104111112905781 0.001111362130622733 -0.1547385391362735 -0.02085288118750577 0.0002836679820972093 -0.160866315123587 -7.929788436064449e-05 0.0007487688934976543 -0.1638757650096488 -0.006791257802968465 0.0005777928563756855 -0.1614787465016221 -0.02164844728115189 0.0009846373165573322 -0.1562137387231065 0.01278211475587152 0.001350856286279679 -0.1656630409672327 -0.0002403528822108574 0.0009183486832287958 -0.1614499253958568 0.006821759346121213 0.0008669227346800249 -0.1590345112674003 0.006670769319447925 0.0008570096391423615 -0.1612889049387207 -6.527672734873199e-05 0.0008071476903934259 -0.1590437090776152 -2.672164617167471e-05 0.0009261318505883996 -0.1591092547059098 -0.007054216406790948 0.0008759477626184069 -0.1567689026036683 -0.02253765366645614 0.001838041709849185 -0.149604944094174 -0.01484688683960968 0.001421282294489586 -0.1520449212068403 -0.0222764543449227 0.00157424465712544 -0.1517788175097897 -0.02214310859929428 0.001859547815511134 -0.1520346774410213 0.01354675228637519 -2.084903025264067e-05 -0.1616211959678329 0.02020990575311436 0.0006057615745149405 -0.1629343362712648 0.01355483495024941 0.0004531314531325364 -0.161073935709062 -9.039578265507015e-05 0.0007900101642951525 -0.1573532280066628 0.01963971958516291 0.00127653951594491 -0.1651783408032245 0.01353174589211479 0.0007880610582988226 -0.1610171430136643 0.006849217217685532 0.0007511768357982217 -0.1590956268594309 -0.0001397224617566842 0.0008199769080232026 -0.1568208203854841 -0.01479487793975224 0.001528121545982332 -0.1522985620236072 -0.02139746498199472 1.342916515424936e-05 -0.1587572350715512 -0.01401383389355649 0.0002108211158993966 -0.1613309105934827 -0.02091079390904588 -3.90309496821504e-05 -0.1610075393989588 -0.02133955226045462 0.0003361280969336091 -0.1586160107961793 -0.006964458937687795 0.0004673108560895485 -0.15935982524498 -0.006797330871403024 0.0004377619613670462 -0.1616322056801971 -0.006958385869253236 0.0006073417510981878 -0.159206366066405 -0.01412304923830115 0.0005630689424012587 -0.1589173058828937 -0.02217510563372661 0.0007161513601265589 -0.1538144424969427 -0.01456370921727264 0.0007317620031166931 -0.1564336746923863 -0.02172837258632056 0.0006874891944197638 -0.1561446145088751 -0.02209518032855794 0.001013299482264127 -0.1538835667111741 0.02006851152731304 0.001577267778552432 -0.1631895375417051 0.01958056700132956 0.001594827815380513 -0.1653343377861435 0.013270059281855 0.001333296249451599 -0.1635182407227943 0.01329414541004384 0.001212182161078565 -0.1633664180758731 0.006646683191259088 0.0009781237275153947 -0.1614407275856419 -0.000167180333321003 0.0009357228069050059 -0.1567597047934534 -0.007249504980381753 0.0007836879958526978 -0.1543482734224422 -0.007100908890600215 0.0007655303209797625 -0.1567005901551361 -0.007202812496572486 0.0008941054374913423 -0.1544165858709744 -0.01463238000188551 0.001047067800127197 -0.1541504821739239 -0.02282532938775176 0.001314500870652213 -0.1491175120383607 -0.01499072470025749 0.0011595118748911 -0.1518012051789336 -0.02242029220557051 0.001312474237526954 -0.1515351014818831 -0.02268149152710395 0.001576271290250699 -0.1493612280662673 0.02120426964056086 -0.000313898859633639 -0.1590411695711225 0.02071863222590492 -2.153344514249227e-05 -0.1610161492688925 0.02071323178278651 -0.0003587079333068735 -0.1612846427232515 0.01403779014414953 2.396004342059384e-05 -0.1593777228157039 0.02119300745583453 0.0003176340694578106 -0.158528679062261 0.02071300113354175 0.0002942330194032325 -0.1607599040144618 0.01403484127254219 0.0004765325031871145 -0.1588427107568613 0.01403215905178636 0.0003397265079663187 -0.1591214775612732 0.007186618573735804 0.0004116165493815545 -0.1549875145368701 0.007031646831492827 0.0005235237431489865 -0.1570721284941658 0.007028964610737002 0.0003867177479281906 -0.1573508952985777 6.725818034373143e-05 0.0008149089657485164 -0.1549898472449552 0.02012766411114639 0.001258979479116829 -0.163033540558786 0.01350428802055047 0.0009038069571806257 -0.1609560274216336 0.0071744093792047 0.0006668563523903243 -0.1544567529746 0.007025542234227275 0.0006511436446533713 -0.1568067477130308 9.144683220740826e-06 0.0008356896157601555 -0.1544708256470533 6.115358307817904e-05 0.0009425288672529014 -0.1547244664638202 -0.007290009479190513 0.001212168926308971 -0.1500848801797919 -0.007223064745976866 0.001108345902719479 -0.1522848892496492 -0.007171055846119427 0.001215185154212225 -0.1525385300664161 -0.01491383157282333 0.001525105318079078 -0.1498449121369829 -0.01418096195984126 0.000240370010621899 -0.1590585301582656 -0.0002464259506454155 0.0007783177882201566 -0.1616033845744317 -0.0145697822857072 0.0005917311081080537 -0.1565871338709613 -0.01471230530705418 0.0007499196779896283 -0.1540813579596924 0.01344513543671713 0.001222095256616229 -0.1611120244045527 0.006753044690588492 0.001091010340816182 -0.1593050444495254 0.006612325863492727 0.001090167530583473 -0.1615759941767045 0.006787402018354853 0.0009789665377481034 -0.1591697778584628 -9.963405511509253e-05 0.0009191914934615043 -0.1591789756686777 -0.0002138728171302692 0.0008253053652663613 -0.1566913923449212 -0.01503741718406675 0.001049094433252455 -0.1517328927304015 -0.007414171942482959 0.001017500403899793 -0.1496026183274394 -0.007285145977623088 0.00101101164151489 -0.152043758323473 -0.01511975066511735 0.001166000637276003 -0.1493600651829001 -0.01497591280446955 0.001427771056874489 -0.1496037812108067 0.02119863854819769 1.867604912085796e-06 -0.1587849243166918 0.02068991207540713 0.0006291626245695187 -0.1607031113190641 0.01418981301478517 0.0003646253094196825 -0.1567580967995655 0.007180513976470252 0.0005392364508859394 -0.1547221337557351 0.02112655525853015 0.0009428453600039941 -0.1584113540124654 0.02065668597675494 0.0009417682698426102 -0.1606444487941662 0.01397415730232568 0.0009048840473420093 -0.1587229326399328 0.01400161517389 0.0007891381484602064 -0.1587840482319635 0.006998084362662957 0.0007668895435351745 -0.1567456321210002 -5.780004999290629e-05 0.0009395126393496478 -0.152270816577196 -0.007352090710836735 0.001114834665104382 -0.1498437492536157 -0.02178628530786067 0.0003647902626404041 -0.1562858387842469 -0.000105707123549651 0.0007791605984528651 -0.1593324348472527 -0.007106981959034774 0.000625499425971123 -0.1568540493337111 -0.02250021751073918 0.001015326115389386 -0.1514659772676517 0.01341077810895077 0.001334139059684307 -0.1612472909956152 -0.0002482301448966302 0.0009373491683344396 -0.1568266589359838 0.007101611365439925 0.0008810827010319072 -0.1543296002007529 0.006961685355780569 0.000874002717855966 -0.1566820557340766 -7.394680747091356e-05 0.0008323853484423023 -0.1543389368115975 -2.725432366164739e-05 0.000942802790080947 -0.1544072492601297 -0.007331838461432355 0.0009005941998762451 -0.1519754458749408 -0.0232565307315436 0.001786273286832828 -0.1445757934947446 -0.01533535133701328 0.00140188684536631 -0.147089205911092 -0.02304093005964768 0.00155038707874252 -0.1468466527665526 -0.02289709219899987 0.001812157498341006 -0.1470903687944592 0.01419544410714833 4.88588448739577e-05 -0.1570143420539963 0.02115978135718234 0.0006302397147309024 -0.1584700165373632 0.01418370841751961 0.0004922452109240674 -0.1564927160184305 -5.169545272735391e-05 0.0008118927378452627 -0.152536197358331 0.0205975333929216 0.001260056569278213 -0.1608004457770852 0.01415048231886743 0.0008048508561971591 -0.1564340534935327 0.007138010372322312 0.0007739695267111157 -0.1543931765876765 -0.0001198812816391288 0.0008421783781450584 -0.1520296856510197 -0.01527327010536706 0.001499221106570899 -0.1473303368372682 -0.02230655588579569 0.0001148989821450673 -0.1540613662804513 -0.01463550741174174 0.0002911049191173079 -0.1567105957627156 -0.02185201043389521 6.416407364965834e-05 -0.1564093006760012 -0.02224083075976115 0.0004155251711358131 -0.153937904388697 -0.007278116154278153 0.0005218455482365538 -0.1546180592977505 -0.007121287545982975 0.0004945782021630511 -0.1569889422713653 -0.007263810567329953 0.0006527667720446258 -0.1544831663600964 -0.01472661089400238 0.0006189984541815562 -0.1542162508973466 -0.02300108058627092 0.0007679501776080341 -0.1489729182694801 -0.01512529278332633 0.0007758190867303658 -0.1516605958459611 -0.02258809310999876 0.0007420507688672964 -0.1513936803832114 -0.02291320498701134 0.001041225524130124 -0.1490452151539204 0.02098058423130593 0.001534733291082591 -0.1586912345471014 0.02052454787930948 0.001556000534817512 -0.1609403860444032 0.01386681446094721 0.001312871815949386 -0.1589981394983134 0.01390117178871357 0.001200828012881308 -0.1588628729072509 0.006927328028014208 0.0009860465209240443 -0.1568173223251391 -0.000156280288521517 0.0009492915524658499 -0.1519661092640961 -0.007524355355218274 0.0008143945702645719 -0.1494608851596178 -0.007386930167800013 0.0007990412830586348 -0.15190457929103 -0.007469263648850616 0.0009159474870821823 -0.1495317517435286 -0.01517484237148501 0.001064447720458392 -0.1492891985989893 -0.02356530576658653 0.001311222324463612 -0.1441143129015307 -0.01548973885453474 0.001164361364181702 -0.1468584656144851 -0.02319531757716914 0.001312861597557912 -0.1466159124699457 -0.02341091824906506 0.00154874780564822 -0.1443450531981376 0.02212264160785859 -0.0002266024968646715 -0.1543577210667818 0.02165782453184656 4.551578629656958e-05 -0.1564432000645214 0.02166345562420972 -0.0002702506782491552 -0.1566994453189522 0.01465463009079719 9.250702625844145e-05 -0.154672617801826 0.02208835385728199 0.0003602466211880665 -0.1538712564789572 0.02164068065655826 0.0003389403453229385 -0.1561999677706091 0.01463138161824335 0.0005135514867891953 -0.1541640047267786 0.0146374862155089 0.0003859315852848105 -0.1544293855079136 0.0074803701734998 0.0004570370315992001 -0.1500758778683536 0.00732738977635225 0.0005619466919947622 -0.1522663154214768 0.007333494373617801 0.0004343267904903773 -0.1525316962026118 9.518034715464384e-05 0.0008346029789540856 -0.1500803790240727 0.02105356974491804 0.001238789325543293 -0.1585512942797834 0.01411408331198504 0.0009119640305179505 -0.1563704771066091 0.007449934321710517 0.0006930538446074219 -0.1495735445392959 0.007312171850457608 0.000679955098498873 -0.1520151487569479 1.788118961377951e-05 0.0008552771242536072 -0.1495880814333677 7.996242126000197e-05 0.0009526113854581965 -0.1498292123595439 -0.007504103546341271 0.001199344916293482 -0.1450064766346329 -0.007459137744412115 0.001108422660096637 -0.1473045474810362 -0.007397056512765891 0.001205756921301226 -0.1475456784072124 -0.01538031713894243 0.001492809101563155 -0.1447911350646887 -0.01479233602003692 0.0003183722651908105 -0.1543397127891009 -0.0002625357318448299 0.0008064279445263676 -0.1569615518736379 -0.01513959837027454 0.0006448978629222939 -0.1517954887836153 -0.01526271797074459 0.0007911723739363029 -0.1492169017145489 0.01404109779837293 0.001207907996057249 -0.1565104173739272 0.007011848014189045 0.001086530185756267 -0.1545660035911841 0.006882446352388769 0.001088770263286224 -0.1569355240203547 0.007056729689814484 0.0009838064433940871 -0.1544478018959685 -0.0001188284830963534 0.0009351090908044824 -0.1544571385068131 -0.0002113719948891742 0.0008477386356482395 -0.1518952426801853 -0.0155448305609024 0.001062808447364092 -0.1467875990305743 -0.007648680855085451 0.001024135335792484 -0.1445508376576398 -0.007531426398784204 0.001020817869846138 -0.1470767279925396 -0.01560699331083599 0.001167678830128048 -0.1443325752795852 -0.01545260579331453 0.001405204311312656 -0.1445633155761922 0.02210549773257029 6.682206216169749e-05 -0.1541144887728695 0.02160745455790607 0.0006515459905960303 -0.1561413052457113 0.0147843620153909 0.0004086418263936333 -0.1519735671736554 0.007465152247605158 0.0005750454381033111 -0.1498247112038247 0.02200083596876651 0.0009390262112812717 -0.1537504466995715 0.02156369561364833 0.0009409357856426327 -0.1560809003560185 0.01455122366710322 0.0009100544561565893 -0.1540400234501622 0.01458762267398561 0.000802941281835798 -0.1541035998370858 0.00727577284357522 0.0007870682728196645 -0.1519515723700244 -2.708461231537692e-05 0.000946199380450452 -0.1472900105869644 -0.00757639220071336 0.001111740126042983 -0.1447786571461364 -0.0226538182360333 0.0004414245798765506 -0.1515171422749657 -0.0001331340700445535 0.0008041878669964105 -0.1545920314444673 -0.007401235754748213 0.0006681200592505627 -0.1520394722286841 -0.02328319317642872 0.001039586251035823 -0.1465436155855054 0.01399621612274748 0.001310631738419429 -0.1566286190691427 -0.0002562536705146144 0.0009504623780104194 -0.1520134443754009 0.007358698592004669 0.0008894062371616208 -0.1494418028387171 0.007230154978722297 0.0008852444690967639 -0.151885701519735 -8.282838160680222e-05 0.0008519004037130962 -0.1494513439991674 -2.773667523914497e-05 0.0009534533205307067 -0.1495222105830782 -0.007586518105151862 0.0009192649530285277 -0.1470058614086288 -0.0239031520744596 0.001725671158295376 -0.1393911335064721 -0.01577591646477252 0.00137490324704393 -0.1419709855820559 -0.02373422892052306 0.001518446741379494 -0.1417527232040014 -0.02357984140300159 0.001755972222564102 -0.1419834635006083 0.01480150589067919 0.0001152172673672643 -0.1522167994675677 0.02204459491302425 0.0006496364162346691 -0.1538108515892644 0.01476914408949626 0.0005266502328977441 -0.1517224005091266 -1.186668642073506e-05 0.000828190973946341 -0.1475411772514932 0.02149071010003622 0.001236879751181932 -0.1562208406233365 0.01472538514523852 0.0008160400279443468 -0.1516619956194337 0.007404316456857593 0.0007912300408845213 -0.1495076736890065 -9.937326668746664e-05 0.0008585945901999527 -0.1470621910984678 -0.01570362781040043 0.001462508037294429 -0.1421988050705525 -0.02314880059757409 0.0002126438150417501 -0.1491835890274825 -0.01521345837592612 0.0003672446816391519 -0.1519008241626165 -0.02272767824168489 0.0001637713985934087 -0.1516224776539669 -0.02307494059192251 0.000490296996324892 -0.1490782536484813 -0.007570091554441997 0.0005716038020947029 -0.149692634050018 -0.007424103854360075 0.0005467246751656283 -0.1521553466738843 -0.007547223454830136 0.0006929991861796374 -0.1495767596048179 -0.01528558607035646 0.0006697769898513684 -0.149332776159749 -0.02375722079239914 0.0008140486017273801 -0.1439639188923757 -0.0156407880738087 0.0008142215859959759 -0.1467124020259967 -0.02337915068933503 0.0007909993896677071 -0.1464684185809279 -0.02366126327949283 0.001062635463095496 -0.1440391158969532 0.02182670661954026 0.00148469409687216 -0.1539971489045021 0.02140364542542309 0.001509713693977375 -0.1563441917258018 0.01441927731686465 0.001285612141314214 -0.1542815762478431 0.01446415899249009 0.001182888398952034 -0.1541633745526275 0.007185273303096856 0.000987968211458944 -0.1520039032149506 -0.0001449911315403911 0.0009567707864770522 -0.1469963202481784 -0.007776011082278473 0.0008393476209885858 -0.1444044387881206 -0.007650183218748373 0.0008268710956265788 -0.1469326619738692 -0.007712345968681963 0.0009317414783905347 -0.1444776382228802 -0.0156706584244325 0.001075284972726099 -0.1442593758448256 -0.02423300342883163 0.001300518684771782 -0.1389572422450691 -0.01594084214195854 0.001162327010282133 -0.1417540399513544 -0.02389915459770908 0.001305870504617697 -0.1415357775732999 -0.02406807775164561 0.001513094921533579 -0.1391741878757706 0.02297468039076136 -0.0001418677786945739 -0.1494911199470653 0.02253151712402168 0.0001091894212467463 -0.1516811882130113 0.02254866099930997 -0.0001842351377796227 -0.1519244205069236 0.01522752528213058 0.0001575846264523131 -0.1497834989077094 0.02291663373833241 0.000398474927768228 -0.1490321305089987 0.0225024937978072 0.0003793607744781472 -0.151451693493978 0.01518328403002146 0.0005457643861878249 -0.1493028375241473 0.0151985019559161 0.0004277559796837141 -0.1495540041886761 0.007751534324770585 0.0004979435543915404 -0.1449931389482626 0.00760073432324055 0.0005954986994994811 -0.1472833417437792 0.007615952249135192 0.0004774902929953702 -0.1475345084083081 0.0001237153892146574 0.0008486442353425111 -0.1449998077914477 0.02191377129415339 0.001211860154076716 -0.1538737978020368 0.01467976728038559 0.0009142162242214461 -0.1515961247691443 0.007702426954074963 0.0007138962140756705 -0.1445208251785454 0.00757618063789274 0.0007034750293415462 -0.1470471848589207 2.687304949475612e-05 0.000869015774934077 -0.1445358314180926 9.916170386684627e-05 0.0009566205651845763 -0.1447636509065892 -0.007693862737118979 0.00117964606741078 -0.1397711554350712 -0.007671271796102214 0.001101890701601632 -0.1421609965463555 -0.007598983141730124 0.001189495491852131 -0.1423888160348521 -0.01579850740578928 0.001452658612853078 -0.1395811444707716 -0.01535944607600804 0.0003921238085682265 -0.1494381115387503 -0.0002791217701264754 0.0008290669939254849 -0.152129318820601 -0.01566365617342057 0.0006928262019110415 -0.1468282764711968 -0.0157666159373388 0.0008266981113579829 -0.1441841788402481 0.01459270260577246 0.00118705016701689 -0.1517194758716096 0.007247500459335876 0.001075726313415967 -0.1496431728758503 0.007129674236762461 0.001081128249586117 -0.1521045882335172 0.007303099525670272 0.000982566275288794 -0.1495424878572837 -0.0001384274479411985 0.0009450604418402694 -0.149552029017734 -0.0002086562451369019 0.0008643769290751032 -0.1469231208134188 -0.01600450725555505 0.001069933152880184 -0.1416808405165949 -0.007858970413183182 0.001024341307671548 -0.1393437068983195 -0.007753825634134315 0.001024238321732016 -0.1419472722779796 -0.01604598692100741 0.001162429996221665 -0.1391504745716943 -0.01588106124382139 0.001375006232983462 -0.1393674202023958 0.02294565706454688 0.000128303574536827 -0.149261625228032 0.02245873485354946 0.0006687505695247499 -0.1513912886042851 0.0153340840315515 0.0004482092410798842 -0.1470126347286306 0.007726980639422775 0.0006059198842336055 -0.144756982063404 0.02280744402036218 0.0009291087102402603 -0.1489080773080609 0.02240413999456434 0.0009340674607607659 -0.1513292620038162 0.01508307130618342 0.0009092574737009404 -0.149174940073389 0.01512868917103635 0.000811081277423841 -0.1492408109236784 0.007530562773039816 0.0008016512256186455 -0.1469813140086312 4.282108477991764e-06 0.0009467711407432252 -0.1421459903068084 -0.007776416575151081 0.001101993687541164 -0.1395574311666953 -0.02345301069498661 0.0005133462083845651 -0.1465737539599291 -0.0001612955475530594 0.0008236650577553349 -0.1496679034629341 -0.007673051318360234 0.0007054757115416443 -0.1470485364190693 -0.02399511211061538 0.001057283643249581 -0.1414605805687224 0.01453710353943807 0.001280210205144064 -0.1518201608901762 -0.0002642553114712985 0.0009575369672022764 -0.1470238058319854 0.007592373387645743 0.0008917730485320558 -0.1443848298514448 0.007475535989825205 0.0008905896428468383 -0.1469133163450809 -9.18188473163651e-05 0.0008655603347603206 -0.1443946343197827 -2.815373371985435e-05 0.0009579541921622697 -0.1444678337545423 -0.007817490747730827 0.0009318444643300666 -0.14187407284322 -0.02447548018492562 0.001656200606011245 -0.1340655921371969 -0.0161672252990544 0.001340270956841396 -0.1367046495177582 -0.02435424180687863 0.001478359645391514 -0.136511417191133 -0.02418931612969261 0.00169093588215331 -0.1367283628218345 0.01536310735776597 0.0001780378878484832 -0.1472421294476639 0.02286203887934729 0.0006637918190042441 -0.1489701039085298 0.01530953034620369 0.0005561855709219492 -0.1467764778437721 2.883579382580333e-05 0.0008387948109011602 -0.1423821471916669 0.02231707531995122 0.00120690140355621 -0.1514526131062816 0.01525493548721857 0.0008215024621579653 -0.1467144512433032 0.007647400170860354 0.0008028346313038631 -0.1444528275149951 -7.827172955410851e-05 0.000869118760873609 -0.1419322660384325 -0.0160846714610223 0.001417923336711012 -0.1369183737861341 -0.02392161575469106 0.0003064677351022993 -0.1441376893470028 -0.01574585365456653 0.0004390357685985011 -0.1469151616985104 -0.02353520817613258 0.0002595557750720248 -0.1466606391872426 -0.0238394182735451 0.0005602581684148397 -0.1440508041196892 -0.007839316639761383 0.0006164353047037079 -0.144597333842229 -0.00770470409710169 0.0005940195533992055 -0.1471449839461235 -0.007807663861019928 0.0007278914628461469 -0.1445008863151748 -0.01579826871608026 0.000715241953215544 -0.1442806263673023 -0.02444117242476831 0.0008543336477935097 -0.1388016143900623 -0.01610859175352339 0.0008468406343910477 -0.1416030265890914 -0.02409919660858372 0.0008341911247604448 -0.141382766641219 -0.02433708792679997 0.001077426166282646 -0.1388794283175657 0.02260476830872973 0.001427069704615268 -0.1491206353181339 0.02221573746413499 0.001455881900743714 -0.151558892111318 0.0149261343840328 0.001251398009015618 -0.1493819040969921 0.0149817334503672 0.001158237970888445 -0.1492812190784255 0.007419936923490809 0.0009837496809740115 -0.1470140013636475 -0.0001332985127687194 0.0009580571781018018 -0.1418642683748821 -0.008003619538740967 0.000858458298746134 -0.1391931006804047 -0.00788981531050972 0.0008489029598673599 -0.1417987697342626 -0.007931294975962074 0.0009413998032088409 -0.1392684037893621 -0.0161183114837863 0.001079488491758958 -0.1390751714627369 -0.02482623512567876 0.001282346120909578 -0.1336609154643037 -0.01634260276943097 0.001153343714290563 -0.1365023111813116 -0.02452961927725519 0.00129143240284068 -0.1363090788546864 -0.02465085765530219 0.001469273363460412 -0.1338632538007503 0.02375778545861872 -5.985508542281239e-05 -0.1444551423022578 0.02333720959847557 0.0001693099211727079 -0.1467436364056283 0.02336623292469003 -0.0001008614320586932 -0.1469731311246615 0.01575465989169465 0.000219044234484364 -0.1447241406252602 0.02367545662570308 0.0004321883383531652 -0.1440250286035296 0.02329604518201774 0.0004153316330606965 -0.1465285795562641 0.01568894178988902 0.0005730422762144178 -0.1442729268910375 0.01571349547523683 0.0004650659463723528 -0.1445090837758961 0.007999082416163254 0.0005342565759776281 -0.1397535075221228 0.007850754685119109 0.0006240763950266493 -0.1421371663503341 0.007875308370466919 0.0005161000651845842 -0.1423733232351926 0.0001526098395221373 0.0008569513216942039 -0.139762331478597 0.02270610616454596 0.001178089207427764 -0.1490143563130974 0.01519990870400396 0.000910440879386158 -0.1466464535797528 0.007931056646530925 0.0007293100428995588 -0.1393127663178806 0.007816741800302944 0.0007216031284876146 -0.141916795748213 3.604311667387231e-05 0.0008768256752855532 -0.1393282366081 0.0001185969547059726 0.0009544780551551694 -0.1395419608764759 -0.007858772487805475 0.001153039631642945 -0.1343935533667488 -0.007858871450494328 0.001088690469657246 -0.1368686301325341 -0.007776317612462226 0.001166342849526863 -0.13708235440091 -0.01616712633636554 0.001404620118827095 -0.1342295727519728 -0.01588046619722622 0.0004614515199030037 -0.1443675115946159 -0.0002959080902127527 0.0008460808090598375 -0.1471202533590396 -0.01614024453226485 0.0007353844762486089 -0.1416994741161456 -0.01622239598175464 0.0008563959732698218 -0.1389973575352335 0.01509857084818774 0.001159421376573662 -0.1467527325847893 0.007459489065592874 0.001058487808528588 -0.1445503444263131 0.007353494762464375 0.001067107060972277 -0.1470967586510817 0.007525931226619308 0.0009751304285303217 -0.144467587138879 -0.0001582610083427994 0.0009489177147585867 -0.1444773916072168 -0.000205623075547611 0.0008751156736390949 -0.1417889652659247 -0.01641492733220986 0.001070402209827856 -0.1364270080723542 -0.008044364846011015 0.001018084073735213 -0.133995843706997 -0.007951667629597097 0.00102121269070338 -0.1366697753026582 -0.01643529998584489 0.001150215097322395 -0.1338283795856503 -0.01625992251546832 0.001337142339873229 -0.1340307179220969 0.0237166210421609 0.0001861666264651764 -0.1442400854528937 0.02324145032303263 0.0006806485242967128 -0.1464665529557952 0.01583726952093317 0.0004832224571653966 -0.1418892680628261 0.00796506953134709 0.0006317833094385935 -0.1395331369200017 0.02354416846044872 0.0009130069000285374 -0.1438979692239296 0.02317580624040545 0.0009210578051343987 -0.1464030232659952 0.01556827092404723 0.0009023899742802965 -0.1441413995376872 0.01562329770726184 0.000813451557052104 -0.1442093972012375 0.007761715017088333 0.0008105415457158073 -0.1418487980846627 3.614207936272502e-05 0.0009411748372712521 -0.1368531598423147 -0.007951568666908245 0.001085561852689079 -0.1341946985368729 -0.02418139408972968 0.0005804006914479045 -0.1414696518685325 -0.000189913787084254 0.0008374615566161478 -0.1445738391342711 -0.007921468089251173 0.0007374468017249209 -0.1418952172613168 -0.02463370377522353 0.001068339884351544 -0.136231264927183 0.0150321286871613 0.001242778756571928 -0.1468354898722235 -0.0002720652365740465 0.0009584730536373609 -0.1418717225533589 0.007801980121412123 0.0008881136707616174 -0.1391728594803717 0.007697176754528932 0.0008899433596468365 -0.1417788446659082 -0.0001008197086644208 0.0008732859847538756 -0.1391829800803882 -2.849514588552926e-05 0.0009562274892165826 -0.1392582831893456 -0.008023992192375991 0.0009382711862406733 -0.1365944721937008 -0.02497148158871573 0.001577873548318938 -0.1286142531241311 -0.01650792321736337 0.001297978811027076 -0.131305048415564 -0.02489885835719725 0.001430109834614258 -0.1311375842942174 -0.02472348088682067 0.001617037077165092 -0.131339922630664 0.01587843393739099 0.0002372007452774078 -0.1421043249121903 0.0236098125430759 0.0006725976191908513 -0.1439614989137296 0.015803256636117 0.0005807491906263619 -0.141668897460705 7.01549641788906e-05 0.0008436481038102867 -0.1370735304444358 0.02307446838458923 0.001170038302321903 -0.1465093022710317 0.01573761255348982 0.0008211584714640481 -0.141605367770905 0.007866518383971524 0.0008087118568305882 -0.1392428128991261 -5.665409974004408e-05 0.0008736970583173857 -0.1366543050124387 -0.0164151270382606 0.001365456589980942 -0.13150390324544 -0.02462242658491686 0.0003962438989166001 -0.1389378966005377 -0.01623087161233912 0.000506339601810154 -0.1417676152213833 -0.02427202116980396 0.0003513558170094497 -0.1415377929737703 -0.02453179950484258 0.0006252887733550549 -0.1388697554953 -0.008084734326721462 0.0006562483736044795 -0.1393463885391824 -0.007962025483241424 0.0006363418391540938 -0.1419718611907057 -0.008044176932731215 0.0007573533361753068 -0.1392697446097935 -0.01626295337574488 0.0007552910106989946 -0.1390740014646223 -0.0250505742806696 0.0008887504410998154 -0.1335006384774856 -0.01652709690970528 0.0008736043699229747 -0.1363468695789452 -0.02474587335271895 0.0008715420444466625 -0.1361511264337739 -0.02493840470317418 0.001085548281004697 -0.1335807769708947 0.02331267761972929 0.001361804008545175 -0.1440754891521551 0.02295872296422951 0.001394436856580222 -0.1465980622351445 0.01538608334266108 0.001210145908536881 -0.1443129167892341 0.01545252550368752 0.001126788528538616 -0.1442301595018 0.007630734593502498 0.0009733007396451025 -0.1418616019533424 -0.0001211923622994457 0.0009530988722484151 -0.1365843515936843 -0.008206328394561277 0.0008716920434451581 -0.1338415034597163 -0.008104973966651122 0.000865075171095646 -0.1365173020700605 -0.008125346620286146 0.0009448880585901855 -0.1339186735833566 -0.01651628176012002 0.001077019082177368 -0.13375120946201 -0.02534280884648671 0.001256711364714918 -0.1282404123543029 -0.01669358684624886 0.001137397719225065 -0.1311181280306499 -0.02508452198608273 0.001269528742812248 -0.1309506639093033 -0.02515714521760122 0.001417292456516928 -0.128427332739217 0.02446937532678659 1.93452283165955e-05 -0.1392640001824052 0.02407241597624483 0.0002257667833348804 -0.1416445143929674 0.02411358039270265 -2.025492855310844e-05 -0.1418595712423315 0.01623422887147492 0.0002768009021471117 -0.139508753852264 0.02436243826475169 0.00046131605041833 -0.1388641353103967 0.02401894744522739 0.0004467521943857475 -0.1414445819569631 0.01614674745564131 0.0005953130466589444 -0.1390884508141386 0.01618076034045747 0.0004977863131979791 -0.1393088214162597 0.008221987911615524 0.0005659519835435242 -0.1343716367074801 0.008076522279073224 0.0006476310132215414 -0.1368422015126803 0.008110535163889388 0.0005501042797605761 -0.1370625721148014 0.0001816077119050257 0.0008594958075932347 -0.1343825950371144 0.02342842304008901 0.001137405454286856 -0.1439867291880423 0.01567307429093042 0.0009005602853950774 -0.1415354143521506 0.008134987407264692 0.0007392750722803787 -0.1339640004457673 0.008033022026897808 0.0007342925575899687 -0.1366383833818239 4.531128062683961e-05 0.0008786795730077957 -0.1339799220763821 0.0001381074597296087 0.0009461573519616621 -0.1341787769062581 -0.007998323215182155 0.001119544298985141 -0.1288887606365619 -0.008021344030596584 0.001068814186360177 -0.1314423021717794 -0.007928547851493814 0.001136291965314043 -0.1316411570016554 -0.01648490240194894 0.00134870892365204 -0.1287515068803465 -0.01635358045581916 0.0005262461362605398 -0.13914214256986 -0.0003126226305642933 0.0008573680910665335 -0.1419483664827478 -0.01656765430369553 0.0007724994073521475 -0.136423513508334 -0.01662845133761543 0.0008802212422724867 -0.133671070968601 0.01555732887057071 0.001124958839653396 -0.1416241743162634 0.00764730341597257 0.001034752313445573 -0.1393017559704827 0.007553396240782722 0.00104662006098708 -0.1419260501983979 0.007724641768692347 0.0009614329921035952 -0.1392373077254272 -0.0001781580613841975 0.0009466053060958534 -0.1392474283254437 -0.0002021741365745757 0.0008799028571033877 -0.136507181470044 -0.01677456862052399 0.001064201704080038 -0.1310409579070096 -0.008204188502578124 0.001005381612571252 -0.1285223300195034 -0.008124276674294568 0.001011732843153232 -0.1312590868632502 -0.01677349867453241 0.001131046488643085 -0.1283813711869032 -0.01658783504564693 0.001291627580445095 -0.1285682915718173 0.02441590679576914 0.0002403306393674628 -0.139064067746401 0.02395330336260021 0.0006871614752234338 -0.1413810522671632 0.01629221308818361 0.0005136340169809271 -0.1366178860089384 0.008178487659440108 0.0006526135279119514 -0.1341678185766237 0.02420880085631854 0.0008906785292644221 -0.1387343094269183 0.02387648465838363 0.0009018427146464797 -0.1413161393254239 0.01600539048886533 0.0008893961000130197 -0.138953584453645 0.01606992875142473 0.0008099942860819904 -0.1390235378723994 0.007968483764338407 0.000813694371520998 -0.1365684299630695 6.833209604126863e-05 0.0009294096856327598 -0.1314263805411646 -0.008101255858880139 0.001062462955778196 -0.1287055453280327 -0.02483650043279323 0.0006424971700082077 -0.1362192675390116 -0.0002187154553744452 0.000845500343525026 -0.1393240722548325 -0.008145531360641368 0.0007639702085248188 -0.1365939459994493 -0.02519669156357815 0.001072730902907367 -0.1308705254158943 0.01547999051785093 0.001198278160995374 -0.1416886225613189 -0.0002795124892943533 0.0009532221784453654 -0.1365716297150995 0.0079868573443022 0.0008784099961134388 -0.133820533850289 0.007894418732857161 0.0008832618334375281 -0.1364966966653303 -0.0001097355251295376 0.0008750510197792984 -0.1338310186550026 -2.875375085440758e-05 0.0009482470349243258 -0.133908188778643 -0.008205258448569699 0.0009385368280082049 -0.1311819167396099 -0.02538912616814668 0.001490750954273053 -0.123052657366278 -0.0167966573353624 0.001248066283422152 -0.1257874936928907 -0.02536596750731669 0.001373731159493986 -0.1256465348602905 -0.0251803038784312 0.001534312251295996 -0.1258334552452046 0.01634568161920105 0.0002926486059300598 -0.1368178184449426 0.02428561956053512 0.0006759972898413761 -0.1387992223686575 0.01624871283600819 0.0006002955613493543 -0.136414067878082 0.0001118323482166856 0.0008427481412643324 -0.131630198672021 0.02376073923802392 0.001126241268904799 -0.1414048992895367 0.01617189413179162 0.0008149768007724005 -0.1363491549363428 0.008060922375783446 0.0008088425341969088 -0.1338922671480282 -3.46005476567152e-05 0.0008723283424258151 -0.1312431652326354 -0.01669372469166441 0.001305147626629097 -0.12597070900142 -0.02524866471084801 0.0004819082829386398 -0.1335988892345595 -0.01666669951878473 0.0005690783282715597 -0.1364726388868709 -0.02493554564788244 0.00043907609092762 -0.1362683929175486 -0.0251496194957588 0.0006853293620192276 -0.1335497638560226 -0.008305296424269366 0.0006910071747791307 -0.1339544780758117 -0.008195015375495414 0.0006736277741918051 -0.136650433307497 -0.008255812409415322 0.0007813496091121444 -0.133897990767764 -0.01667793535246948 0.0007898788079394731 -0.1337275582766486 -0.02558305987577213 0.0009172997759098269 -0.1280760874246977 -0.0168946941351667 0.0008944959096774925 -0.130958795442207 -0.02531681707822087 0.0009030251085048211 -0.1307883629510916 -0.02546293436112942 0.001087005570312373 -0.1281582498895003 0.02394835750917994 0.001288874772057997 -0.1388759508944459 0.02363051756445461 0.001325339390301586 -0.1414757200233005 0.01579783046257625 0.001161813542751785 -0.1390888534324643 0.01587516881529603 0.001088494221409807 -0.1390244051874088 0.007817080380137384 0.0009565811547795058 -0.1365611449103858 -0.0001086655791379624 0.0009418958043423453 -0.1311714319348962 -0.008383285603928011 0.0008790675664141075 -0.1283647435522792 -0.008294806999244644 0.0008753798049296328 -0.1311031235059977 -0.008293737053253068 0.0009422245894926797 -0.1284435367858913 -0.01686304722520736 0.001067889465564513 -0.128302577953291 -0.02578052912295776 0.001223672374886315 -0.1227112754369266 -0.01699235881276794 0.001114526993728784 -0.125616802728215 -0.02556166898472223 0.001240191869800617 -0.1254758438956148 -0.02558482764555221 0.001357211664579684 -0.1228819664016023 0.02510688097619429 9.570671740163118e-05 -0.1339323482805274 0.02473465962047299 0.0002785113839099806 -0.1363982417954621 0.02478812815149044 5.752597285911334e-05 -0.1365981742314663 0.0166644344439049 0.0003308293504725776 -0.1341519924940037 0.02497519820275686 0.0004858444664009673 -0.1335640918277247 0.02466881823375427 0.0004735802584096486 -0.1362141135690607 0.01655509280501077 0.0006125597693406729 -0.133764046136746 0.01659859305718619 0.0005258982249722457 -0.1339678642676024 0.008419226090891458 0.0005930599696426087 -0.1288626276139158 0.008277106749078073 0.0006661675209614936 -0.1314133140298415 0.008320607001253491 0.0005795059765930663 -0.1316171321606979 0.0002104514378546522 0.0008563021343138747 -0.1288756941252389 0.02407857918274924 0.00108977665066121 -0.1388051301606821 0.01609782910031037 0.0008845442626889304 -0.1362774216386036 0.008313379581216718 0.0007438238543401076 -0.1284896196893866 0.008224183494240703 0.000741549463310243 -0.1312268100675769 5.459553931929772e-05 0.0008746027334556796 -0.128505974854445 0.0001575281830172815 0.0009316840766626243 -0.1286891901629743 -0.008112008854117416 0.00107923071744519 -0.1232723227909608 -0.008158098678347769 0.001042306165008221 -0.1258973264052321 -0.008055166034649786 0.001099387508215165 -0.1260805417137613 -0.01675056751113204 0.001284990835859121 -0.1231624900786194 -0.01677698056755868 0.0005864577288588852 -0.1337766836551856 -0.0003289965041483973 0.0008628797441123516 -0.1366281170231471 -0.01694417815002075 0.0008041534753444788 -0.1310152827502547 -0.01698317273985007 0.0008981836711619672 -0.1282204154884884 0.01596760742674107 0.001083642384085718 -0.1363482423723675 0.007810434974126887 0.001004507028455987 -0.1339120944241909 0.007728869195049729 0.00101962967095078 -0.1366069251973368 0.007898646159214543 0.0009414585122847129 -0.13386631413724 -0.0001979467102171941 0.0009380995359505725 -0.1338767989419536 -0.0001982141298129047 0.0008787387812637731 -0.1310926387012841 -0.01708190736344288 0.001051369970650211 -0.1255380094946029 -0.00833776555019369 0.0009863041356388243 -0.1229387101292421 -0.008270977026385906 0.000995842874105038 -0.1257305200743728 -0.01705914733657572 0.00110498825526257 -0.1228249927830844 -0.01686344585917018 0.001238527544955939 -0.1229956837477601 0.02504103958947557 0.0002907755919012992 -0.1337482200541261 0.0245919995295377 0.0006882614978326948 -0.1361492006273215 0.01669721214682416 0.000539452218021788 -0.1312133597208203 0.008366302836054088 0.0006684419119913582 -0.1286761236516512 0.02479913434198876 0.0008621280642446491 -0.1334317459024931 0.02450396759915365 0.0008764032967545354 -0.1360830276647057 0.01639299584314548 0.0008702690301790438 -0.133626139876391 0.01646706087462673 0.0008007015682625139 -0.1336978731741302 0.008150118462759457 0.0008111169252267732 -0.1311550767698378 0.000100685363549651 0.0009115272858926487 -0.1258809712401737 -0.008224887202155553 0.001032767426542007 -0.1231055164601014 -0.02541586229331007 0.0006996040294242333 -0.1308374883296286 -0.000247430725071239 0.0008477571016175587 -0.1339332862500013 -0.008344291014098688 0.0007850373705966191 -0.1311596108140454 -0.02568179449936494 0.001070486075398071 -0.1253936814308121 0.01587939624165341 0.001146690900256992 -0.1363940226593184 -0.0002864253149005621 0.0009417872974350472 -0.1311384189882351 0.008146339409932982 0.0008626955712755796 -0.1283429565784882 0.00806659837711759 0.0008705527836945092 -0.1310817452143886 -0.0001184730969975133 0.0008708815688448435 -0.1283538500653837 -2.8924546322571e-05 0.0009340385919234158 -0.1284326432989958 -0.008360525577060849 0.0009326858510264658 -0.1256517268407606 -0.02572638684583987 0.001394944381943822 -0.117396803897258 -0.01703207619801678 0.001190624258791323 -0.1201677570132501 -0.02575345798439881 0.001309308378415068 -0.1200540396670923 -0.02555775650699327 0.001442847668108437 -0.120224730631768 0.01676305353354287 0.0003443833435221198 -0.1313974879472216 0.02488716627237281 0.0006739862653228082 -0.1334979188651089 0.01664428889198679 0.0006148341603705374 -0.1310268557585556 0.0001536086183870217 0.0008361453435438992 -0.1260674752024383 0.02437374592558435 0.001075501418151323 -0.1361538483984695 0.01655625696160274 0.0008029759592923783 -0.1309606827959398 0.008229859495574851 0.0008032597128078435 -0.1284162881339374 -1.219298448848494e-05 0.0008650639949894658 -0.1257141649093143 -0.01691919784997864 0.001237087549694506 -0.1203345633441094 -0.02579776653694528 0.0005634555825880008 -0.1281357984652197 -0.01705153148060732 0.0006272313786835656 -0.1310451382705157 -0.02552321562389664 0.0005226819327633202 -0.1308673438498896 -0.02569041320635871 0.0007403776792489138 -0.1281059429449587 -0.008499961590677637 0.0007207299819123919 -0.1284367354450214 -0.008402629007473503 0.0007058685783457614 -0.1311956067604166 -0.008441623597302824 0.0007998987741632497 -0.1284007394986503 -0.01704151073322488 0.0008190148789111093 -0.1282564114348596 -0.02603625896002183 0.0009400365463354166 -0.1225435191116813 -0.01720977228197492 0.000909552056374762 -0.1254541313319802 -0.02580965941789698 0.0009286681611226217 -0.1253098032681895 -0.02590839404148979 0.001081854460610866 -0.122627397274304 0.02450974226731035 0.001208299816182255 -0.1335367095083438 0.02422904988824514 0.001248587294120126 -0.1362063302013949 0.01616008862071862 0.001106403422319121 -0.1337244019662674 0.01624829980580627 0.001043354906147847 -0.1336786216793164 0.007978387192029934 0.0009336012998657832 -0.1311275255013395 -9.571307013035366e-05 0.0009244998534572019 -0.1256408333538652 -0.008533639351105083 0.0008806562139819388 -0.1227783794586132 -0.008458462477516547 0.0008798618901980232 -0.1255715615054462 -0.008435702450649386 0.0009334801748103815 -0.1228585447939276 -0.01715708423703142 0.001052164294434127 -0.1227448274477699 -0.02613719798381248 0.001183338745019821 -0.1170895087459236 -0.01723748176700308 0.001084821440329322 -0.1200141094375828 -0.02595886355338511 0.001203505559953068 -0.1199003920914251 -0.02593179241482618 0.001289141563481821 -0.1172431563215908 0.02566774153522584 0.000169262867944639 -0.1284752886267674 0.02532146986899135 0.0003275536671728032 -0.1310196902272461 0.02538731125571006 0.0001324847926731351 -0.1312038184536474 0.01704348381305865 0.0003811614187936238 -0.1286689581203416 0.02551135815335605 0.0005058155218860277 -0.1281399958513856 0.02524327817805646 0.0004958299941434975 -0.1308520438395551 0.01691236886728639 0.0006248196881130676 -0.1283148077703861 0.01696529212212376 0.0005494377457643182 -0.1285013117326507 0.00858977397024418 0.0006156643565362786 -0.12324203260332 0.008451576775730447 0.000679744105438193 -0.1258658261463533 0.008504500030567817 0.0006043621630894436 -0.1260523301086179 0.000238882558063383 0.0008474475369907341 -0.1232571776971404 0.02465443830464956 0.001035213940213452 -0.1334842277054185 0.01647273687596087 0.0008624118177601143 -0.1308873512404906 0.008465391105758174 0.0007430415591109315 -0.122905174929626 0.008389385343487446 0.0007434327067255195 -0.1256973973095063 6.381277778224302e-05 0.0008646728473748779 -0.1229219425294341 0.0001766911258203789 0.0009111361382780608 -0.1230887488602934 -0.008199325903852689 0.001032221794097238 -0.1175602421054945 -0.008268545727023189 0.001009262964868031 -0.1202494761173683 -0.008155667378985052 0.001055726255771214 -0.1204162824482276 -0.01696285637484628 0.00121358308802053 -0.1174785230013762 -0.01714886406381146 0.0006420927822501963 -0.1282862669551205 -0.0003447633082753745 0.0008626185051841893 -0.1311744149346062 -0.01726811027534973 0.0008303832641239042 -0.1254901272783514 -0.01728494915556345 0.0009103463801586776 -0.1226609492851472 0.01632804083862166 0.001035497693728917 -0.130939833043416 0.007948376687103445 0.0009677893758690852 -0.1283964984575959 0.007879405830615166 0.0009861482021625361 -0.1311542964408934 0.008047358048518215 0.0009152424735723324 -0.128369727518042 -0.0002174544584122818 0.0009234284711415963 -0.1283806210049375 -0.0001936499705860496 0.0008716758926287591 -0.1255606680185507 -0.01733541866745878 0.00103199747950088 -0.1199339441022683 -0.008444419757887272 0.0009609740509991209 -0.1172609893690769 -0.008391092654040481 0.0009736390933189726 -0.1200998497491595 -0.01729080887084988 0.001072156398009471 -0.1171752490575002 -0.01708540330186357 0.001177959216471471 -0.1173288966331675 0.02558954984429095 0.0003375391949153334 -0.1283076422390765 0.02515524624767241 0.0006839717930653385 -0.1307858708769393 0.01705056606180012 0.0005607399392111532 -0.1256910142273528 0.008527582538001177 0.0006793529578236051 -0.123073603766473 0.02531296290245868 0.000827408642192784 -0.128005386011882 0.02505604862222372 0.0008447683532187165 -0.1307185659571876 0.01672965115619583 0.0008450521067341817 -0.1281741712951851 0.0168131712418377 0.0007856162482664459 -0.1282475028506343 0.008305865257845577 0.0008028685651932555 -0.1256240657540571 0.0001330326009527424 0.0008876316766040849 -0.1202327085175602 -0.008321872830869981 0.0009965979225481797 -0.1174106157372857 -0.02591701274848355 0.0007517460644617086 -0.1253396587884505 -0.0002757924517870951 0.0008442596788907385 -0.1284166169513087 -0.008516800470891359 0.0008006930979471652 -0.1256075574518173 -0.02608672847191715 0.001061687645677619 -0.1198165139288024 0.0162290594772069 0.00108804459602567 -0.1309666039829699 -0.000292631332000819 0.0009242227949255121 -0.1255874389581045 0.008279757677760695 0.0008410557585859444 -0.1227556912162486 0.008213048543846838 0.0008518756649307619 -0.1255493238973684 -0.0001269408366721932 0.0008608559862839416 -0.1227670353374309 -2.900393621649722e-05 0.0009136799471123843 -0.1228472006727453 -0.008489029554496177 0.0009208151324905298 -0.120019684413845 -0.02598123959385203 0.001290617020893803 -0.1116631506341037 -0.01721282967586965 0.001125795535946462 -0.1144620700015903 -0.02605921878883225 0.001236977882956812 -0.1143763296900136 -0.02585381321984595 0.001342780701418812 -0.1145299772656808 0.01712875775273501 0.0003924636122404588 -0.1258586606150437 0.02541216052790737 0.0006666120820394059 -0.1280726909316338 0.01698837462955712 0.0006244285404984795 -0.1255225853905058 0.0001952240331957464 0.0008239430753167584 -0.1204011373544072 0.02491135258488451 0.00101785422918752 -0.1307710477601129 0.01688917700410843 0.0007852251006518578 -0.125455280470754 0.008372574391759435 0.000792048658848438 -0.1228304330729373 1.04856739354519e-05 0.0008520078050550262 -0.1200830821493515 -0.01709028274885236 0.00116141940749552 -0.1146116963697991 -0.02626717207455468 0.0006409365191954293 -0.1225642106610433 -0.01738356683261616 0.0006808332505539106 -0.1255004730530323 -0.02603246930574998 0.000602196050891715 -0.1253500045631315 -0.02615171551728825 0.0007904865327654229 -0.1225538648863623 -0.008667693735632342 0.000745488097934629 -0.1228087487039083 -0.00858382766315499 0.0007331090399235105 -0.1256227420744649 -0.008600666543368713 0.0008130721559582839 -0.1227935640812607 -0.01735197634782708 0.0008427623221350228 -0.1226761339077948 -0.0264077986037992 0.0009570687343506447 -0.1169189522860464 -0.01747071897745214 0.0009188624741662916 -0.1198486658723298 -0.02622202878191051 0.0009485526403430306 -0.1197312356988638 -0.02627249829380584 0.001070203739685233 -0.117004230515985 0.02499477489057098 0.001120141067076946 -0.1280729049101036 0.02475225857894067 0.0011642204416296 -0.1308048072092237 0.01647157578883721 0.001043965221473015 -0.1282347016838497 0.01657055715025198 0.0009914183191762627 -0.1282079307442959 0.008114067182432069 0.0009044225672275147 -0.1255760948369222 -8.233104006328835e-05 0.0009010149047925327 -0.1200083402926628 -0.008656537968493725 0.0008765815725742164 -0.1170984305458717 -0.008595088659799403 0.0008786188932780775 -0.1199384050022424 -0.008550478863190498 0.0009187778117866687 -0.1171797099574743 -0.0173968679761531 0.001029960158797018 -0.1170939696458976 -0.02641061564578277 0.001135871981324368 -0.1113915769574089 -0.01742751770183502 0.001048423016161745 -0.1143262831632429 -0.02627390681479762 0.001159605363172094 -0.1142405428516662 -0.0261959276198174 0.001213244501109086 -0.1115273637957563 0.02614940151144625 0.000240104492466896 -0.1229083738679752 0.02583037983240116 0.0003729600071764619 -0.1255241848596804 0.02590857152333605 0.0002046836802057675 -0.1256918312473713 0.01736958774084521 0.0004278844245015873 -0.1230752032356476 0.02596854086681713 0.0005213256244899532 -0.1226074015305262 0.02573994951008659 0.0005135705731879904 -0.1253736986909559 0.01721696598628765 0.0006321835918004423 -0.1227562882300761 0.01727915741853065 0.0005684949905131159 -0.1229247170669231 0.008732610410379548 0.0006339021897695756 -0.1175258575973896 0.00859900075806886 0.0006884718744402535 -0.1202155162635078 0.008661192190311863 0.000624783273152927 -0.1203839451003548 0.0002666422532634303 0.0008330619919334069 -0.117543049851442 0.02515386889651483 0.000973774854634865 -0.1280391454609928 0.01679636029010969 0.0008342322003893642 -0.1253805386140653 0.008590178456412823 0.0007370658678203319 -0.1172266752184892 0.008527784781085498 0.0007400537134656317 -0.1200659250740576 7.287934926277634e-05 0.0008490199594097264 -0.1172438322937831 0.0001954262762800668 0.0008846438309587851 -0.1173934586619918 -0.008259772861333616 0.0009786928821869803 -0.1117689786691762 -0.008352096309610443 0.0009698334665930505 -0.1145149840191266 -0.008229549382593151 0.001005457338142109 -0.1146646103873353 -0.01712050622759282 0.001134654951540391 -0.11171606465164 -0.01746743290509351 0.0006932123085650291 -0.1226864796824758 -0.0003596585242644475 0.0008566387369018571 -0.1256026235807521 -0.01753774616971577 0.0008512784161426369 -0.1198638504949774 -0.01753216828614646 0.0009168251534624305 -0.117008691415959 0.01663726628416584 0.0009805984128314451 -0.1254142980631761 0.008060622786893882 0.0009246874426274162 -0.1227705603547534 0.008004499736998663 0.0009462384092482507 -0.1255835294061747 0.008170190232327288 0.0008828716006066803 -0.122763125785501 -0.0002365082821056 0.0009026718283046774 -0.1227744699066833 -0.0001883901453665141 0.0008588186655800803 -0.1199270608810601 -0.01753357680713825 0.001006226776949292 -0.1142450037516403 -0.00852347431648072 0.0009295659105492282 -0.1115056332009125 -0.008483947037183994 0.0009452699807741744 -0.1143833112849947 -0.01746704498113174 0.001032718945936798 -0.1114486050791607 -0.01725235695516637 0.001110091465721516 -0.1115843919175081 0.02605897118913169 0.0003807150584784246 -0.1227578876992507 0.02564075188463791 0.0006743671333413687 -0.1253063937712041 0.01735057563859834 0.0005776139071297644 -0.1200666295639579 0.008661394433396186 0.0006854840287949537 -0.1173762664079394 0.02574808079554033 0.0007866233353250167 -0.1224707954407467 0.0255305218489995 0.0008070159887589003 -0.1252380907263143 0.01701391923665051 0.0008138395469554805 -0.1226132433284976 0.01710673595064926 0.0007648324472179741 -0.1226879851851863 0.008434968067086757 0.0007890608132031381 -0.1199911832173689 0.0001652027975396035 0.0008578793750036561 -0.1144978269438327 -0.008391623588907167 0.0009541293963681043 -0.1116373059350443 -0.02633748533917694 0.0007990026267730369 -0.1197415814735448 -0.0003035354743692294 0.0008350877702810225 -0.1227896545293309 -0.008662115852063033 0.0008110348352544227 -0.11995358962489 -0.02640920712479098 0.001046470357837506 -0.1141552646217276 0.01652769883873243 0.001022414254852181 -0.1254217326324285 -0.0002979575907999217 0.0009006345076008163 -0.1199344954503125 0.008386441411926425 0.0008136278120511646 -0.1170747602077407 0.008333099544843559 0.0008273417853185544 -0.1199152257119946 -0.0001350482782836492 0.0008451046923126904 -0.1170865953768062 -2.898917298042349e-05 0.0008873009315251428 -0.1171678747884088 -0.008590006142487221 0.0009030737415617223 -0.1143020318733921 -0.02615166375558734 0.001177984502902623 -0.1058686150699592 -0.01733756903603403 0.001053775206725925 -0.1086871241354358 -0.02628113970068505 0.001156928242113495 -0.1086300960136841 -0.02606645167471968 0.001234300761898213 -0.1087658828520314 0.0174410059609129 0.0004370033411182358 -0.1202171157326823 0.02585831083117873 0.0006539744799074849 -0.1225390984856364 0.01727935966161498 0.0006291957461551426 -0.1199170383745077 0.000236418774522967 0.0008062975359782779 -0.1146474181332829 0.02537142784305566 0.0009533822012009813 -0.1252718501754251 0.01716912962597658 0.0007618446015726743 -0.1198487353296179 0.008488309934169623 0.0007753468399357482 -0.117150717713115 3.335206996605243e-05 0.00083331588918478 -0.1143661542097008 -0.01720571830846048 0.001078338692544801 -0.1088187968695677 -0.02665432411301814 0.0007144560431086897 -0.1169001689459989 -0.01766100892432524 0.0007299720705216593 -0.1198544588249536 -0.02646074809378641 0.0006776962811520595 -0.1197321898035211 -0.02653106135840867 0.0008357623887296673 -0.1169095606160226 -0.00880746081467958 0.0007654051887070627 -0.1170865623918934 -0.00873757727515596 0.0007554466433208459 -0.1199476555479009 -0.008731999391586653 0.0008209933806406396 -0.1170924964688825 -0.01760762970923939 0.0008612369615288536 -0.1170027573389699 -0.02669530397600764 0.0009685567429348534 -0.1112188660168295 -0.01767592097225068 0.0009225691577545348 -0.1141586482813506 -0.02655155128990342 0.0009628127386427489 -0.1140689091514379 -0.02655295981089521 0.001052214362129611 -0.1113052214871192 0.02540140502615832 0.001024507207603812 -0.1225001297782132 0.02519808995836465 0.001072324137340379 -0.1252865173441584 0.0167310139065261 0.000974597325115614 -0.1226353450664833 0.01684058135195951 0.0009327814830948783 -0.1226279104972309 0.008223532099410152 0.0008691576273392903 -0.1199226602812471 -6.851645227714739e-05 0.0008715968613001964 -0.1142901967043266 -0.008751129832614942 0.0008670192226338373 -0.1113413762139699 -0.008703833900554334 0.0008718003976040268 -0.1142199033799208 -0.008637302074547831 0.0008982925665915328 -0.1114235047074412 -0.01758087273919885 0.001001445601979103 -0.1113664765856894 -0.02659858100998212 0.001081485738820795 -0.1056344047704811 -0.01756102766323142 0.001005525824685011 -0.1085700189856968 -0.02650459832788244 0.001108678860072581 -0.108512990863945 -0.02637512238278473 0.001129735120861708 -0.1057515099202201 0.02654930908420157 0.0003083780040181529 -0.1172476095534007 0.02625892497550935 0.0004148518142540531 -0.1199275055419635 0.02634935529782391 0.0002742412482425245 -0.1200779917106879 0.01764095974729056 0.0004711400968938642 -0.1173867335753951 0.02634436930589103 0.0005325249766152928 -0.1169823194217975 0.02615645508635408 0.000526925300552623 -0.1197948604761619 0.01746727388115193 0.0006347954222178123 -0.1171044973201434 0.01753848985813529 0.0005832135831924342 -0.1172540885095935 0.008846716429864199 0.0006479634898683457 -0.1117305637392614 0.008718447443138509 0.0006925146788443388 -0.1144786194788753 0.008789663420121873 0.0006409328398189606 -0.1146282106683255 0.0002934717842652925 0.000813328186027663 -0.1117497712042188 0.02557474291084933 0.0009055652714644144 -0.1224854626094799 0.01706726110373338 0.0008001255736880906 -0.1197727778242437 0.008686897388798536 0.0007260869105844267 -0.1114705873421659 0.008638537922605678 0.0007315763892023793 -0.1143486312803275 8.171153615890887e-05 0.0008278264105668273 -0.1114881102715392 0.00021356226373246 0.0008523898963857036 -0.1116197830056711 -0.008292849956586574 0.0009188719229841475 -0.1059154513356646 -0.008408162136533646 0.0009242189167666878 -0.1087105422682885 -0.008276311408960093 0.0009487824025855639 -0.1088422150024204 -0.01722225685608696 0.001048428212943385 -0.1058920332028119 -0.01773089246384886 0.0007399306159078761 -0.1169933656689461 -0.0003734190138928485 0.0008450463156672394 -0.1199285613733234 -0.01775138239534361 0.000866980965820958 -0.1141527142043615 -0.01772321690431129 0.0009177879827843452 -0.1112801211153997 0.01689392321904237 0.0009190675098274884 -0.1197874449929769 0.008146668760659769 0.0008753402711563586 -0.1170503273944378 0.008103645773776825 0.0009000138568918874 -0.1199104438745956 0.008266555086293096 0.0008444840416037616 -0.1170625438010893 -0.0002549346039169773 0.0008759609218652875 -0.1170743789701547 -0.0001823442103442577 0.0008403235173425009 -0.1142080682108553 -0.01767485542129853 0.0009742524807273159 -0.1084878904922255 -0.008574251655231955 0.0008923063564080334 -0.1056895665668516 -0.008548862985856337 0.0009109361334786307 -0.1085975998838821 -0.01758641633260704 0.0009868960476144138 -0.1056619856686663 -0.01736295770540965 0.001035145429655328 -0.1057790908184054 0.02644683919504631 0.0004204514903167229 -0.1171149644875991 0.02604622505071569 0.0006595741559701548 -0.1197265574312721 0.01759554286787762 0.0005902442332418193 -0.1143564415805295 0.008766806909331367 0.0006870252002263862 -0.1116005755407136 0.02610228203310773 0.0007399259681026442 -0.1168439974734363 0.02592518141432403 0.0007632746517138303 -0.1196573964570914 0.01724436172251707 0.0007767768900769044 -0.1169593788405885 0.01734623024476028 0.0007384959179614881 -0.1170353363459627 0.008536669400362479 0.0007698573613177957 -0.1142726737749533 0.0001970237161059811 0.0008224794167842871 -0.1086930193389153 -0.008433550805909264 0.0009055891396960905 -0.1058025089512581 -0.02667481404451289 0.0008415063930217715 -0.1140595174814142 -0.0003303960270099049 0.0008203727299317105 -0.1170684448931656 -0.008779295323647261 0.0008162122056704499 -0.1142139693029316 -0.02664694249299488 0.001025021240877824 -0.1084266353936553 0.01677403689340904 0.0009499237393800852 -0.1197752285863255 -0.0003022305359775867 0.000871179746895098 -0.1141958518042038 0.008465718468239899 0.0007806008963439811 -0.1113166441498476 0.00842607994008316 0.0007971143541975728 -0.1141957021787942 -0.0001427056821875208 0.0008238100594889091 -0.1113290101819087 -2.887792412041047e-05 0.0008550834034466047 -0.1114111386753801 -0.008662690743923448 0.0008796627895209353 -0.1085154713904107 -0.02623564269305597 0.001057315681992114 -0.1000305750420313 -0.01740494717414396 0.0009748110192000737 -0.1028600708044415 -0.02641711185151904 0.001069400710406454 -0.1028324899062562 -0.02619365322432166 0.001117650092447368 -0.1029495950559952 0.01769801275703289 0.0004781707469432493 -0.1144890866463311 0.02622332566949938 0.0006362254723589685 -0.1169131584476169 0.01751563334734478 0.0006293059435998596 -0.1142264533819817 0.0002769332366388136 0.0007834177064262465 -0.108823007537463 0.02575184352963303 0.0008822165878532281 -0.1196720636258247 0.01739458971095313 0.0007330064393435354 -0.1141572924078011 0.008576307928519218 0.0007533439034642039 -0.1113936157460068 5.632286678329112e-05 0.00080919663349623 -0.1085800769545088 -0.01726424632482127 0.0009880938024881306 -0.1029730131888479 -0.0269566676859184 0.0007841720812110601 -0.1111601743833354 -0.01788206425029899 0.0007747886349590613 -0.1141233683876144 -0.02680549589946827 0.000749314062159875 -0.1140301716646672 -0.02682598583096302 0.0008763644120729567 -0.1111895202000825 -0.008918233961895736 0.0007806568634612903 -0.1112866786392872 -0.008862847388287659 0.0007730310260841765 -0.1141866205155903 -0.00883468189725534 0.0008238380430475638 -0.1113140274266285 -0.01780676896895169 0.0008746068031980718 -0.1112527723280584 -0.02689639891454814 0.0009747129284934853 -0.1054601993278294 -0.01782376437358154 0.0009208660755636612 -0.1084007877708996 -0.02679585144527789 0.0009716348357141693 -0.1083395326723295 -0.02674748996226513 0.00102809933365714 -0.1055473020491552 0.02572758739162934 0.0009215554205495746 -0.1168344308636094 0.02556449620889383 0.0009730313140766932 -0.1196672803209113 0.01693712807614456 0.0008984478458529666 -0.1169423791290236 0.01705701440177788 0.0008675916163003696 -0.1169545955356751 0.008306193614449833 0.0008279705837501699 -0.1141834857721427 -5.426659349602823e-05 0.0008364536263760073 -0.1085031053583496 -0.008816563234789101 0.0008521965797503506 -0.1055241553243866 -0.008783846533702021 0.0008596079011920939 -0.1084327657691782 -0.008695407445010527 0.000872251468079192 -0.1056068609456191 -0.01770757212238561 0.0009668411592855725 -0.1055792800474338 -0.02669889201784724 0.001020446087832151 -0.09983537645334647 -0.0176365718365396 0.0009563762221200922 -0.1027624715100991 -0.02664873651391468 0.001050965913326473 -0.1027348906119138 -0.02646726735545161 0.001038880884912133 -0.09993297574768886 0.02686491513035694 0.0003742842400776151 -0.1115094557373969 0.02660464221812399 0.000453404608346454 -0.1142458875795972 0.02670711210727926 0.000341331122047884 -0.1143785326453988 0.01785581578011057 0.0005111238649729804 -0.1116200097383291 0.02663646597510814 0.0005396171346307482 -0.1112812163747149 0.02649041764049959 0.0005360710556230205 -0.1141317678982562 0.01766168168195334 0.0006328520226075874 -0.1113759018584404 0.01774159120248617 0.000593790312249547 -0.1115058900569882 0.008931075758312011 0.0006580910868114339 -0.1058730686462006 0.008808986573555272 0.0006920889986979302 -0.1086718279941832 0.008888896094088104 0.0006530272883398898 -0.108801816192731 0.0003191129008627194 0.0007884815048977906 -0.1058942599909326 0.02591493471236854 0.0008307406943261094 -0.1168392141685228 0.01728400025067381 0.0007602634322233127 -0.1140803208116419 0.008754703561809844 0.0007103472191344463 -0.1056538354194976 0.008720800475304189 0.0007182170648594365 -0.1085622113808317 9.022595328894538e-05 0.0008013267877712398 -0.1056717009931746 0.0002309268026116354 0.0008146095710592968 -0.1057846433775811 -0.008298059137843834 0.0008530395889577426 -0.1000170386856091 -0.008436155396537894 0.0008726729726828879 -0.1028533026262304 -0.008295454547215203 0.000885955755970945 -0.1029662450106369 -0.0172668509154499 0.0009551776354749283 -0.1000238068638202 -0.01793745082390707 0.0007824144723361751 -0.1112234265113113 -0.0003857826006179827 0.0008279985673088244 -0.1141685030168625 -0.01790731643822194 0.0008776848959773879 -0.1083734389835583 -0.01785648107466862 0.0009134547541219179 -0.105492177326108 0.01709665292993462 0.0008510781584467778 -0.1140755375067285 0.008206011489141043 0.0008199380433703543 -0.1112523029271887 0.008176340124900407 0.0008476391572633565 -0.1141513151608133 0.008335864978690471 0.0008002694698571677 -0.1112844735385182 -0.0002725591717369488 0.0008434786330020958 -0.1112968395705793 -0.0001754223832746002 0.0008163987380471658 -0.1084203997371171 -0.01775772762631817 0.0009363213337912509 -0.1026797658888665 -0.008596073219052439 0.0008494740752072576 -0.09983017338426979 -0.008585162437142196 0.0008708902158076454 -0.1027598699755607 -0.01764748261844984 0.0009349600815197043 -0.09983277491880813 -0.01741585795605421 0.0009533948785996858 -0.09993037421315051 0.02675069055273254 0.0004569506873541817 -0.1113953360560559 0.02636937400410794 0.0006397715513666962 -0.1140626069240756 0.01778377086671008 0.0005988541107210911 -0.1085771425104577 0.008842889660060927 0.0006842191529729401 -0.1057634520328491 0.0263733598533419 0.0006875216487333951 -0.1111414724195829 0.02623782094322481 0.0007137238084180196 -0.1139927349465095 0.0174195391607909 0.0007340612725386881 -0.1112290582847152 0.01753012862107022 0.0007068042796589109 -0.1113060298808744 0.00861021101502487 0.0007454740577392137 -0.1084852397846726 0.0002283222119830054 0.0007816934040460945 -0.1028354370525534 -0.008447066178448136 0.0008512568320825001 -0.09992360603493945 -0.02692653330023327 0.0008794425048522726 -0.1083101868555824 -0.0003561112363773457 0.0008002974534158222 -0.1112694907832379 -0.008867398598342418 0.0008164267216058204 -0.1084054169818369 -0.02679764546619769 0.000997579508162818 -0.1026477878905879 0.01696679944038519 0.0008707467319599644 -0.1140433668953991 -0.000305275872824029 0.0008360673115603524 -0.1083882291257876 0.00851691584640288 0.0007422160639169211 -0.105498281197842 0.008491317157321389 0.0007614084801304511 -0.1084074626738448 -0.0001498236941931096 0.0007972063218336359 -0.1055112182611143 -2.866790441453763e-05 0.0008172612101624773 -0.1055939238823468 -0.008706318226920768 0.0008508353274788041 -0.1026771643543282 -0.02623116479771348 0.000928933562378198 -0.09416686969248111 -0.01741361900838296 0.0008892038187927278 -0.09699852153837546 -0.02646502840778036 0.0009746898251051744 -0.09700112307291378 -0.02623340374538472 0.000993124622185156 -0.09709872236725617 0.01789799544433448 0.0005161876634445245 -0.1086912621917987 0.02650491291422502 0.0006135693916820717 -0.1112113443971489 0.01769558476845899 0.0006249821768825972 -0.1084675258971063 0.0003165083102340894 0.0007555653378845882 -0.1029450536659048 0.02605047362248562 0.0008045385346414849 -0.1139879516415962 0.01756403170757587 0.0006989344339339207 -0.1083976539195402 0.008635809704106361 0.0007262816415256838 -0.1055760583086698 7.93151713787037e-05 0.0007799106471708519 -0.1027420044018837 -0.01726461196777865 0.0008909865756679702 -0.09709195418904511 -0.02717164981785113 0.0008502945777898043 -0.1053611870017083 -0.01804494188987343 0.0008154757206255473 -0.1083239328204977 -0.02706415875188476 0.0008172333295004323 -0.1082606806925219 -0.02703402436619963 0.0009125037531416448 -0.1054106931647688 -0.008998986915411586 0.0007914703913907557 -0.1054260581782263 -0.008958610438653661 0.0007860636274260231 -0.1083563684087567 -0.008907775075100342 0.0008218334855705532 -0.1054751067513064 -0.01794769291497986 0.0008830916599421204 -0.1054431287530278 -0.02700870637520181 0.0009758012271550512 -0.09966035098929139 -0.01791263480499545 0.0009139989034527008 -0.102592253156839 -0.02695255264487497 0.0009752570778242682 -0.1025602751585604 -0.02685379919652452 0.0009981236574936011 -0.09974786372131894 0.02597128058768559 0.0008114925508981004 -0.1110923099381571 0.02584943398965747 0.0008665239857238374 -0.1139633704008832 0.01708864603841331 0.0008157152971342272 -0.1111723064326729 0.01721849952796274 0.0007960467236210408 -0.1112044770440023 0.008361463667771961 0.0007810770536436376 -0.1083752920625154 -3.957868632477931e-05 0.0007958450695620894 -0.1026642272910559 -0.008851986215725017 0.0008323927813276323 -0.09966416580348211 -0.008834274725257059 0.0008422946805389914 -0.1025941605639343 -0.008724029717388728 0.000840933428267445 -0.09974716959387595 -0.01777543911678613 0.0009264194345798915 -0.09974977112841429 -0.02670934590847446 0.0009530718816869762 -0.09401233547169972 -0.01765270956376345 0.0009012729784471169 -0.09692125442798474 -0.02670411896316085 0.0009867589847595635 -0.09692385596252309 -0.02647025535309397 0.0009410027220325872 -0.09408960258209043 0.02709367277070785 0.0004380776042592293 -0.1057108281364589 0.026865069372908 0.0004888473694449889 -0.1084960222555869 0.0269792939505324 0.0004061809221684222 -0.1086101419369279 0.01801237426450993 0.0005480843455353316 -0.1057919483913297 0.02684245227914491 0.0005428587012616612 -0.1055210153018572 0.02673945912712652 0.0005412379179462047 -0.108401115838286 0.01779857792047737 0.0006266029601980536 -0.1055874253606774 0.01788676401872846 0.0006004748940365475 -0.1056970419740289 0.008984675684046827 0.0006645804761468441 -0.09997074744735954 0.008869689622928334 0.0006874638476406451 -0.1028122914334286 0.008957875721179419 0.0006613357814791389 -0.10292190804678 0.0003433082731014976 0.0007588100325522933 -0.09999389306648432 0.02617232022051375 0.0007495070998157477 -0.11111689117887 0.01744513784987239 0.000714868856325158 -0.1083198768087124 0.008792753112351078 0.0006901416678729298 -0.09979380044881213 0.008773728337080461 0.000700244443503688 -0.1027238179341549 9.83399466493208e-05 0.0007698078715400937 -0.09981198691654095 0.0002473469872536225 0.0007715906284153362 -0.09990541956721062 -0.008274904284246442 0.0007815294625790484 -0.09409158013680244 -0.008435488751649439 0.000815501768893153 -0.09696087676053611 -0.008286481711045138 0.0008172845257683954 -0.09705430941120577 -0.01725303454097996 0.0008552315124786231 -0.09412922491464176 -0.01808531836663135 0.00082088248459028 -0.1053936225899673 -0.0003964877131352705 0.0008057042173805549 -0.1083391805527075 -0.0180038466453067 0.0008836358092729035 -0.1025432045837588 -0.01793034629546341 0.0009040970042413416 -0.09966225839638675 0.01724409821704423 0.0007768543074075107 -0.1082952955679995 0.008238149579533395 0.0007587221905114487 -0.1053934472925991 0.00822208053433722 0.0007893301169409015 -0.1083228751098939 0.008377532712968138 0.0007504691272141849 -0.1054458642452206 -0.0002892068276278519 0.0008054593851308996 -0.1054588013084928 -0.0001675351846610676 0.0007873044226222766 -0.1025812235006621 -0.01778066606209974 0.0008927323315073043 -0.09683825063759091 -0.008588259170506918 0.0008013997660411063 -0.09394529607707716 -0.008592166194779677 0.0008254369206241818 -0.09688773473067347 -0.01764880253949069 0.0008772358238640412 -0.09397881577438844 -0.0174097119841102 0.0008651666642096521 -0.09405608288477914 0.02696806252492638 0.0004904681527604453 -0.105615921719158 0.02660790606624341 0.0006151901749975282 -0.10833124386072 0.01791356398159587 0.0006037195887042526 -0.1027458813746084 0.008888714398198952 0.000677361072009887 -0.09988227394808583 0.02655910611641473 0.0006296671254844263 -0.1053801570678826 0.02646623298487832 0.0006585943871089107 -0.1082608147437328 0.0175380109814088 0.0006859415947006737 -0.1054392191328623 0.01765690483911229 0.0006700071723094363 -0.1055169962436901 0.008654834479376979 0.0007161788658949255 -0.1026460408233271 0.0002589244140523183 0.0007358355652259891 -0.09694269029280728 -0.00843158172737668 0.0007914646143100774 -0.0940184381069398 -0.02709017809652647 0.0009130479024724277 -0.1025107689954998 -0.0003804186679390942 0.0007750962909511022 -0.1054097527354127 -0.0089254865655683 0.0008119315863591939 -0.1025451119908542 -0.02685902614183813 0.0009644365544210136 -0.09683634323049556 0.01710471508360949 0.0007851073707047746 -0.1082428786153781 -0.0003069183180958108 0.0007955574859195405 -0.1025288065480406 0.008539360175164341 0.000698766198377004 -0.09963706649615317 0.008528138010783609 0.0007204911311469625 -0.1025676738469976 -0.0001563130202803372 0.0007655794898523182 -0.09965061614981763 -2.835652194404896e-05 0.0007741201367921309 -0.09973361994021149 -0.008720122693115968 0.0008168962736843692 -0.09680473094027964 -0.0261362249300788 0.0007932165663122346 -0.08829580074435765 -0.01736224205029286 0.0007973081661766705 -0.0911205484107174 -0.02642278541927663 0.0008731442239996054 -0.09115406810802867 -0.02618369486389614 0.0008610750643452162 -0.09123133521841938 0.01803917422737734 0.0005513290402030367 -0.1028407877919092 0.02670077919777982 0.0005862629133730438 -0.1054505861848699 0.01781760269574799 0.0006165001845672954 -0.1026574078753346 0.0003548856999001935 0.0007230549693629461 -0.09703116379208099 0.02626519335205016 0.0007205798381912634 -0.1082362335030199 0.01767592961438291 0.0006599043966786781 -0.1025869787583474 0.008666056643757709 0.0006944539331249669 -0.09971543347248266 0.0001022469709220809 0.000745770716957018 -0.09686954826294464 -0.01720556460716262 0.0007873730144456415 -0.09119369044058004 -0.0272967195749237 0.0009130846351340236 -0.0995206268729633 -0.01814785324516764 0.0008522775132623896 -0.1024733425255948 -0.02723418469638741 0.000881689606461914 -0.1024409069373358 -0.02715271297506276 0.0009444429311445373 -0.09959048893112735 -0.009048695705097908 0.0007981244775964668 -0.09952212143749774 -0.009023841310254747 0.0007947974344936113 -0.102474089807862 -0.008950340960411463 0.0008152586294620496 -0.09959314362048993 -0.01802870104014986 0.000886962852375759 -0.09959123621339455 -0.02702984883810215 0.0009721367905451004 -0.09383717944332835 -0.01794091752691358 0.0009022647859363663 -0.09675067262340523 -0.02701927760665198 0.0009739690088500757 -0.09674876521630987 -0.02686959737328831 0.0009626043361160384 -0.09392475745751404 0.02613044624110654 0.0006945759192222447 -0.1052907244970517 0.02605086341439606 0.0007530342350601725 -0.1081915172176044 0.01718429791031997 0.0007266490548668466 -0.1053420858948254 0.01732368104375471 0.0007183959915695829 -0.1053945028474469 0.008388754877348867 0.0007287441944442263 -0.1025152568943761 -2.44494976712889e-05 0.0007500829822090552 -0.09679118128661517 -0.008856546345608427 0.0008079385889183345 -0.09377926434240055 -0.008854266280666722 0.0008201656851229834 -0.09672171507294133 -0.008722402758057673 0.0008046691774797204 -0.09386228020973886 -0.01778294612704144 0.0008805052353026554 -0.09389579990705013 -0.02662773940913246 0.0008797353108640325 -0.08818358410517242 -0.01760799928981969 0.0008405675384525694 -0.09106444009112478 -0.02666854265880346 0.0009164035962755043 -0.09109795978843607 -0.02638198216960563 0.0008364759385881336 -0.08823969242476504 0.02723303730711006 0.0005000653437883848 -0.09986909903542644 0.02703774479312749 0.000521462022525023 -0.1026950571686418 0.02716335503890896 0.000469071474023807 -0.1027899635859427 0.01810885649557845 0.0005823229099676144 -0.09991992324139298 0.02695994779744361 0.0005425590679139779 -0.09971909479689391 0.02690120003829426 0.0005427088845878195 -0.1026200550493755 0.01787635045489734 0.0006163503678934539 -0.09975644762285302 0.01797231174074522 0.0006035697720304109 -0.09984492112212673 0.009006508275425824 0.0006677796331344844 -0.09404143378333282 0.008899630693888451 0.000678960650503707 -0.09691761711607247 0.008995591979736324 0.0006661800546406641 -0.09700609061534618 0.0003658019955896921 0.0007246545478567664 -0.09406650696006763 0.02634477617876064 0.0006621215223533355 -0.1053354407824672 0.01754923314578954 0.0006642166619307151 -0.1025086117820179 0.008800203243355897 0.0006658173712965864 -0.09390831972232308 0.008796478177853487 0.000677979519584758 -0.0968510600855676 0.0001059720364244903 0.0007336085686688463 -0.09392680789970012 0.0002626494795547277 0.0007236734169378174 -0.09399994992956276 -0.008222891653886316 0.0007047282801896524 -0.08815737734951448 -0.008405575412196616 0.0007530640231153793 -0.09105133671329582 -0.008248897969066377 0.0007431288713843503 -0.09112447874315846 -0.01717955829198256 0.0007489724232509435 -0.08822658904693606 -0.0181727076400108 0.0008556045563652452 -0.09952137415523052 -0.0004052730627822554 0.0007784233340539578 -0.1024577843650484 -0.01803927227160003 0.0008851306340707835 -0.09667965044041305 -0.01794319759185529 0.0008900376897317174 -0.09380822189286445 0.01733490320813544 0.0006966710587996243 -0.1024638954966024 0.008242583946646363 0.0006919854580782352 -0.0994911787088144 0.008240366763089878 0.000725353824294842 -0.1024423130007067 0.008390972060905352 0.0006953758282276195 -0.09956412260248379 -0.000304701134539326 0.0007621891197029337 -0.09957767225614825 -0.0001585930852220424 0.0007533523936476693 -0.09670816541927685 -0.01774214287737044 0.0008438369498911834 -0.09098142422378649 -0.008550127977439219 0.0007484661279788871 -0.08805323502652493 -0.008569193573973068 0.0007749329470099966 -0.09099926555180105 -0.01758893369328584 0.0008141007194214598 -0.08811840956584867 -0.01734317645375901 0.0007708413471455609 -0.08817451788544128 0.02709649255227684 0.0005213122058511813 -0.09979409691616017 0.02675952695692917 0.0005861130966992021 -0.1025496259323883 0.01798322803643472 0.0006051693505242312 -0.09688026429011337 0.008903355759390861 0.0006667985022155353 -0.09397487675282795 0.02665731054949401 0.0005666710495259688 -0.09957744406797324 0.02660820833295437 0.0005981690875051975 -0.1024788005679279 0.01759833536232917 0.0006327186239514864 -0.0996072552820632 0.01772503183092254 0.0006284063586994492 -0.09968562225839268 0.008669781709260117 0.0006822917848367952 -0.09677269310923811 0.0002886557947347906 0.0006852728257431194 -0.09103284853591878 -0.008386509815662767 0.0007265972040842697 -0.08810530618801971 -0.02716328420651292 0.0009426107128395619 -0.09667890315814581 -0.0004030558792257714 0.0007450549678373509 -0.09950665007315607 -0.008952621025353167 0.0008030315332574005 -0.09665069288994914 -0.0268287941236173 0.0009259360507045664 -0.09101038177425039 0.01718651509387645 0.0006932806886502398 -0.102390951602933 -0.000306981199481032 0.0007499620234982848 -0.09663522152560747 0.008532378195126812 0.0006505959293562651 -0.09375085152667238 0.008535869185145576 0.0006746810638666345 -0.09669395901141277 -0.0001620840752408065 0.0007292672591372997 -0.09376505793453646 -2.794048769005301e-05 0.0007259978476986857 -0.09384807380187477 -0.008703337161523822 0.0007782023584486107 -0.09091624968446274 -0.02594882638218149 0.0006506003848684589 -0.08243613423470282 -0.01724947717981036 0.000699533256423673 -0.08524468463061388 -0.02628828289565698 0.0007651678478662457 -0.08530985916993761 -0.02604252565613015 0.0007219084755903467 -0.08536596748953024 0.01811977279126794 0.0005839224884614345 -0.09695526640937963 0.02680862917346881 0.0005546150587199734 -0.09964826943243357 0.01788007552039975 0.0006041882196052822 -0.09681370725960849 0.000391808310769755 0.0006862539566620683 -0.09109940556642365 0.02639387839530027 0.0006306234843741068 -0.1024340842825125 0.01772875689642495 0.0006162442104112775 -0.09674288189514815 0.008666290719241354 0.0006582066503264258 -0.09382958562449772 0.00012503763295834 0.0007071417496377368 -0.090980777374424 -0.0170858590180339 0.0006776643325290556 -0.08529675579210864 -0.02732932848730572 0.0009728535832421039 -0.09365637543518454 -0.01818901209620181 0.0008854890304192853 -0.09658924843634113 -0.02731302403111471 0.0009429691091880637 -0.09658850115407391 -0.02717958866270394 0.0009724951868936021 -0.09374677743925644 -0.009066338590463975 0.0008009490396444941 -0.09359274990166491 -0.009057517147780941 0.0007995367586204805 -0.09655743566958133 -0.0089614424680362 0.0008044438142814143 -0.09368600712203273 -0.01804809371428306 0.0008865429150947972 -0.09371496467249663 -0.02695744875250135 0.0009640855508781976 -0.08800900283231591 -0.01790699754905489 0.000886012069898266 -0.09089413358735823 -0.02699364879530175 0.0009681111707116489 -0.09092309113782213 -0.02679259408081691 0.000921910430871115 -0.08809629346874417 0.02620304843563211 0.0005711139693905858 -0.0994470883216282 0.02616674733836932 0.0006328449443064152 -0.1023689064093399 0.01722281619113923 0.0006315497137344105 -0.0994691335152213 0.01737120430539823 0.0006349400838837949 -0.09954207740889068 0.008387481070886587 0.00067129069371725 -0.09662101511774338 -8.874891156203379e-06 0.0006995310286675761 -0.09090204327659865 -0.008829390422558266 0.0007792162814349744 -0.08788776611193957 -0.008842968384083345 0.0007935774351766544 -0.09083351522717006 -0.008689759199998742 0.0007638412047069308 -0.08797050056923225 -0.01772856491584536 0.0008294757961495034 -0.08803567510855599 -0.02645186888254556 0.0008008627603712697 -0.08236788292992916 -0.01750099842999239 0.0007746644441750783 -0.08521055897822705 -0.02653980414583901 0.0008402990356176511 -0.08527573351755079 -0.02620034763236353 0.0007257315726198644 -0.082402008582316 0.02728046648037907 0.0005606067940648902 -0.09400209812435784 0.02712020713891134 0.0005515829309894341 -0.09686059646062588 0.02725675189374456 0.0005303360689266374 -0.09693559857989213 0.01814348737790245 0.0006141932135996873 -0.09402176595384532 0.02698656935998121 0.0005390801244415094 -0.09389328856620142 0.02697325857871241 0.0005408195961777436 -0.09680619168154767 0.01789338630166856 0.0006024487478690479 -0.09390080414426225 0.01799653881770352 0.000603429878787997 -0.09396736117476712 0.008995572083958575 0.0006680887029680304 -0.08810342095352681 0.008897887663657235 0.0006669530371323084 -0.09100587033792494 0.009001040179692199 0.0006679341680512574 -0.09107242736842981 0.0003863402150361302 0.0006864084915788413 -0.08813039915152064 0.02643017949256306 0.0005688925094582773 -0.09951226619480072 0.01759484437231041 0.0006086334894411169 -0.0966641477973228 0.008776212883832117 0.0006377734925711439 -0.08801568601984204 0.008788208063594007 0.0006517954319338651 -0.09096200287108255 0.0001130424531964498 0.0006931198102750154 -0.08803446052318348 0.0002766606149729005 0.0006712508863803981 -0.08808653168467825 -0.008141530607924351 0.0006230762720943149 -0.08223319610429916 -0.008345829292681784 0.0006857712000366009 -0.08514321556541204 -0.008182211130905333 0.0006639022761419836 -0.08519528672690682 -0.01704517849505292 0.0006368383284813869 -0.08233466516950098 -0.01819783353888485 0.0008869013114432989 -0.09362456266842473 -0.0004118773219088049 0.0007464672488613646 -0.09654196430523965 -0.01801189367148267 0.0008825172952613458 -0.09080087636699041 -0.01789341958752981 0.000871650916156586 -0.08794838447212774 0.01736771331537946 0.0006108549493734254 -0.09659896992415029 0.008218818727632353 0.0006200719594243483 -0.09356337427231497 0.008230701337139358 0.0006560287087512917 -0.09652727649056468 0.008375598461379582 0.0006353339443903067 -0.09365711289949367 -0.0003188638089880362 0.0007140052741713413 -0.09367131930735775 -0.0001485061137157257 0.0007149061053956197 -0.09081930881930597 -0.01764062965255191 0.000790039520903122 -0.08512782452093437 -0.00848099584056922 0.0006911078766144556 -0.08217274779413641 -0.008515561909004219 0.0007197870022966713 -0.08511299141033066 -0.01746643236155739 0.0007459853184928625 -0.08227031536203278 -0.01721491111137536 0.0006708541307414572 -0.08230444101441961 0.02713351792018014 0.0005498434592531999 -0.09394769334527964 0.02682193995473761 0.0005528755869837392 -0.09673536631708735 0.01799107072196989 0.00060358441370477 -0.09099835475986412 0.008885892483895347 0.0006529310977695872 -0.08805955348668443 0.0266657597532872 0.0004988942139677028 -0.0937511811517194 0.0266615351513906 0.0005327826317468357 -0.09666431260984631 0.01759906897420701 0.0005747450716619838 -0.09375101633919589 0.01773298149832155 0.0005823557926321446 -0.09382975043702124 0.008654295539479464 0.0006441847109637045 -0.0908832687732572 0.0003173411379538832 0.0006304248823327294 -0.08512444106207059 -0.008311263224246785 0.0006570920743543852 -0.08220297194921779 -0.02714338861990354 0.0009684695670601507 -0.09083268913375023 -0.00042375993141581 0.0007105104995344211 -0.09357806208698993 -0.008947864506511119 0.0007900826605397341 -0.09074025800680224 -0.02670465881752346 0.0008824741556247336 -0.08518844288112254 0.01721093358163223 0.0005955929644074669 -0.09650523129697158 -0.0003052858474629563 0.0006996441204296614 -0.09072557019212726 0.00849529730785401 0.0005981015247052934 -0.08785794326219977 0.008513837751490411 0.0006243487270307792 -0.09080439739443608 -0.0001670465573521268 0.0006886589030701338 -0.08787285468706967 -2.741533479260448e-05 0.0006732838263420902 -0.08795558914436236 -0.008655193131563741 0.0007351620790247149 -0.08503025695303798 -0.02566698348771014 0.000501580753048735 -0.0766071028818392 -0.01707398966413968 0.0005963443148315952 -0.0793899253379878 -0.02605942618512785 0.0006512217567100023 -0.07948749290588417 -0.02580790493494581 0.0005760905689585968 -0.079521618558271 0.01813801928216882 0.0006143477485164603 -0.09105275953894232 0.02682616455663421 0.0005189871692046061 -0.09382223485896041 0.01788139112190667 0.0005884268085063266 -0.09095448729302172 0.0004270207380171129 0.0006455824875311726 -0.08516830852891298 0.02643440409445966 0.0005350040916791443 -0.09659913473667381 0.01772098631855966 0.0005683338532694233 -0.09088343358578072 0.008635755095843065 0.0006179375086382186 -0.08793681464102091 0.0001476085216314494 0.0006644406845927996 -0.08509421690698922 -0.01690425704781724 0.0005623285125715249 -0.07942014949306916 -0.0272669314711517 0.001029961799388236 -0.08778677726996006 -0.01816663503080784 0.0009154554195163651 -0.09068976358581249 -0.02729812997922871 0.00100140769131517 -0.0907215763525723 -0.02711219011182653 0.000997023675133217 -0.08789789005113799 -0.009050896259321265 0.0008003249304679715 -0.08765628794025367 -0.009058617424892619 0.0008006369850562327 -0.0906245189209593 -0.008940143340939765 0.000789770605951473 -0.08777202702609663 -0.01800417250591131 0.0008822052406730844 -0.08783264538628478 -0.02678912911158142 0.0009520636220192014 -0.08219459908624605 -0.01780925976706984 0.0008656399517270878 -0.0850411825990928 -0.02687328893204139 0.0009580745864486994 -0.08510180095928097 -0.02662049899706349 0.0008764631911952355 -0.0822812410080876 0.02618705341079648 0.0004414669226761058 -0.09357927201520148 0.02619505092321429 0.0005062904460333457 -0.09651318016841484 0.01720293606921442 0.000530769441050227 -0.09357132314375821 0.01735971580296165 0.0005460314260161854 -0.09366506177093693 0.008357058017743181 0.0006090867420648208 -0.09071065876725737 7.150733642395136e-06 0.0006446047006598745 -0.08501534552816808 -0.008769664051868261 0.0007466595127666216 -0.08200844438969113 -0.008799527237213263 0.0007629378971007979 -0.08494810525081534 -0.00862532994621874 0.0007188836946905386 -0.08209059609191377 -0.01761076646720691 0.0007737611365689456 -0.08218816365981013 -0.0261795304476929 0.0007169361414321378 -0.07658444999408365 -0.01733026314413106 0.0007040220090232965 -0.07937859889411003 -0.02631569966511923 0.0007588994509017037 -0.07947616646200639 -0.02592325696770152 0.0006092584472404364 -0.07659577643796142 0.02723342102437244 0.0006201124015545687 -0.08812811346527133 0.02710999519217683 0.0005795962629980391 -0.09101070101573638 0.02725694375237575 0.0005903595978097294 -0.09106510579481458 0.01811449655416551 0.0006441005522612995 -0.08811576720939907 0.02691992979403525 0.0005328358364109628 -0.08806188464017287 0.02695324957700823 0.0005359579804262361 -0.09097758660318714 0.01784807133893368 0.0005853046644910534 -0.08803878533000745 0.01795775093899691 0.0006004622696894966 -0.08808265279684985 0.008950874471035415 0.0006659594484119426 -0.08217546343747099 0.008863543677433765 0.0006518664704915432 -0.0850955747286565 0.008973223277496993 0.0006670240756899864 -0.0851394421954989 0.0004046719315555329 0.0006445178602531288 -0.08220432977088507 0.02642640658204184 0.0004701805683219043 -0.09366522658346044 0.01758052853057061 0.000548497869336498 -0.09080456220695958 0.008719943481717391 0.0006064608950464587 -0.08213464647362431 0.008748078182774753 0.0006221171938088012 -0.08507516624673317 0.0001194738205740863 0.0006487843858304571 -0.08215369713388035 0.00028920643689652 0.0006147685835703868 -0.08218392128896174 -0.008030334691741747 0.0005370676392937356 -0.07633826888179407 -0.008255665266155482 0.0006140877579540955 -0.07925550833796524 -0.008085932649833049 0.0005800719556940251 -0.0792857324930466 -0.01684865908972594 0.0005193241961712352 -0.07647268588181663 -0.01815891386523648 0.0009151433649281038 -0.08772153260510686 -0.0004160387658444552 0.0007101984449461598 -0.09060983110628432 -0.01792001268545134 0.0008761942762435864 -0.08492544351324985 -0.01777939658172484 0.0008493615673929114 -0.08210152173796859 0.01734117535932524 0.0005197842236906996 -0.09071860763870063 0.008166362653996841 0.0005433772645502551 -0.08762837123185668 0.008192590690814596 0.0005817246119873017 -0.09059587275208583 0.008330829980925426 0.0005707393946277743 -0.08774315724702822 -0.0003315138842807114 0.0006612967729926147 -0.08775806867189812 -0.0001371833720071247 0.0006723805187359574 -0.08493319382594544 -0.01747459724978058 0.0007317978270993796 -0.07929644719188739 -0.008380175906559616 0.0006298118076396459 -0.07632304791041361 -0.008430585873564416 0.0006604598421270507 -0.07924789785227501 -0.01727985317712626 0.0006733739745358918 -0.07645374895224863 -0.01702357969713487 0.0005656962803441904 -0.0764650753961264 0.02707667540920385 0.0005764741189827657 -0.0880949990527221 0.02679284477366123 0.0005158650251893328 -0.09090653289594613 0.01793540213253533 0.0005993976424114527 -0.08511867403882192 0.008835408976376403 0.0006362101717292006 -0.08215505495554765 0.02658223586127238 0.0004267498419266471 -0.08791967010415885 0.02662399780727979 0.0004628220279471748 -0.09083542562793911 0.01753876658456319 0.0005124256833159702 -0.0878888066831793 0.01767922437255225 0.0005322616672488955 -0.08796767806200045 0.008607620394785701 0.000602281209875876 -0.08499629486791203 0.0003448043949878217 0.0005717642671700971 -0.07923645767770919 -0.008205255299150681 0.0005834397234666907 -0.07633065839610384 -0.02702803029136656 0.0009910127107037188 -0.08499068817810304 -0.0004422668026622112 0.0006718510975091132 -0.08764232958605517 -0.008910280155594762 0.0007734922216172965 -0.08483236616497239 -0.02648432977963716 0.0008344998817256695 -0.07938952454016485 0.01717670803239666 0.0004924220936131804 -0.09060382162352908 -0.0003016506989357102 0.0006450183886584384 -0.0848184078107739 0.008427446271491243 0.0005417307704573233 -0.08197710299018206 0.008461371789672625 0.0005699161475813082 -0.08491752312619091 -0.0001711088901885085 0.0006441951416119723 -0.08199277368993658 -2.67747845389887e-05 0.0006164193235358895 -0.08207492539215924 -0.008574919979213938 0.0006882356602031336 -0.07916574615005237 -0.02528872503650841 0.0003467176552431818 -0.07082840931358356 -0.01683445047153401 0.0004882647314414138 -0.07357572861199858 -0.02573412774210065 0.0005318268983376597 -0.07370642965383359 -0.02547785426210927 0.0004241492041459584 -0.07371775609771136 0.01809214774770393 0.0006430359249832556 -0.08515178845137115 0.02675108282765382 0.0004797928391688049 -0.08799077737216586 0.01781993663787632 0.0005696483657287106 -0.08509826555689859 0.0004602698896468346 0.000601513543852839 -0.07925686615963252 0.02638464463603443 0.0004341083823013765 -0.09074947105968018 0.01765108967149488 0.0005166053684865529 -0.08502715828889158 0.008573694876604317 0.000574095832751891 -0.08205587473190318 0.0001698837875788884 0.0006181363513430522 -0.07922884719201895 -0.01665952986412508 0.0004418926472684587 -0.0735833390976888 -0.02710698845813368 0.001084817054920733 -0.08193064258826067 -0.01807894235872747 0.0009425709926943523 -0.08479346526425716 -0.02718695996464269 0.001057389427154485 -0.08485870992911038 -0.02694805878485755 0.001018440338469967 -0.08206262083725335 -0.009001352324762657 0.0007966835433385729 -0.08173154536499352 -0.00902612429204196 0.0007985042369032722 -0.0846939166526236 -0.008885508188315459 0.0007716715280525972 -0.08186999487734233 -0.01789524071817204 0.000874373582678887 -0.08196307222561977 -0.02652251427155969 0.0009365364080217308 -0.07641320599871385 -0.01764608916171398 0.0008415979603941762 -0.07921082519420247 -0.02665582169157055 0.0009443000150204661 -0.07930390254247993 -0.0263510223596263 0.0008267362747269344 -0.07649882799639875 0.02608042953273325 0.0003060476359374817 -0.08770560365044594 0.02613374147176487 0.0003737572793067938 -0.09064243783282371 0.01712339609336504 0.0004247124502438684 -0.08766698744115131 0.01728786342029363 0.0004520745803213875 -0.08778177345632285 0.008296904462744042 0.0005425540175037892 -0.08480273711101936 2.363518246581344e-05 0.0005857712890484846 -0.07915007545029784 -0.00867651105629022 0.0007107530970759655 -0.07616052995179215 -0.00872308755407924 0.0007287063049212935 -0.07908448717074162 -0.008528343481424918 0.0006702824523578056 -0.07624178893110288 -0.01742802075199156 0.0007138446192540516 -0.07637248997293788 -0.02580852008510182 0.0006284949554942391 -0.07085295942704328 -0.01709434799583072 0.0006291533815669425 -0.07358800366872845 -0.02599402526639736 0.0006727155484631884 -0.07371870471056347 -0.02554862256080511 0.0004876063053687105 -0.07084068437031342 0.02708936552850172 0.0006790422795677647 -0.0822658928428627 0.02700464766126849 0.0006059390579893637 -0.08516388874151778 0.02716139327643708 0.0006495773405611666 -0.085197003154067 0.01802011999976856 0.0006725008639898535 -0.08222067814016684 0.02675763618417952 0.0005242915514347904 -0.0822436243319631 0.02683878298910738 0.0005285636939228765 -0.08515275448606797 0.01773878983294845 0.0005653762232406245 -0.0821891354027937 0.01785425532760746 0.0005951254999233665 -0.08220954388471705 0.008871434738160324 0.0006618942750261259 -0.07627677909566535 0.008795689109938856 0.0006341775850362923 -0.07920571278464483 0.008911154604597869 0.0006639268617190342 -0.07922612126656817 0.0004205500232092891 0.0005994809571599306 -0.0763075239887297 0.02633133269700282 0.0003663987389320644 -0.0878126368773024 0.01750484106638181 0.0004842403061919851 -0.08494838654717045 0.008630559997005216 0.0005723815322127425 -0.07628440096331784 0.008675251739361303 0.0005894212136296005 -0.07920952371847106 0.0001251920452228009 0.0006010966699261941 -0.07630372443686573 0.0003001126526317342 0.000554724585753239 -0.07631133492255596 -0.007888823207010382 0.0004472512273916914 -0.07049229845438199 -0.008134499556784998 0.0005385315175156686 -0.0734076731823978 -0.007959578949376064 0.0004921594333427135 -0.07341528366808803 -0.01658877412175939 0.0003969844413174366 -0.07066035388398276 -0.01805417039144816 0.0009407502991296531 -0.08183109397662709 -0.000417494835382907 0.000670030403944414 -0.08467995829842509 -0.01776193329816117 0.0008666099756801519 -0.07907237568185368 -0.01759951266392495 0.0008236447525488481 -0.076286867975253 0.01725393790211225 0.0004238892031974025 -0.08484135332031401 0.008084731052755763 0.0004623485949362948 -0.08170496875000596 0.008125546853376301 0.000502862929743275 -0.08466666999093132 0.008256088662123504 0.000502039682696809 -0.081841035870094 -0.0003424664995562484 0.0006045040538514582 -0.08185670656984853 -0.000124532392399488 0.0006262419337666443 -0.0790688164709871 -0.01724251557069602 0.0006696240262851023 -0.07350674468941772 -0.008246977202448529 0.0005651169423251439 -0.07052380292536946 -0.008313576554504071 0.0005974643749823948 -0.07342342541789153 -0.01702774864377517 0.0005968059489096914 -0.07068838117620636 -0.01676785111947847 0.0004559172987841628 -0.0706761061194765 0.02692350085634062 0.0006016669155012775 -0.08225475858741291 0.02666993602272595 0.0004755206966807188 -0.08508164721806098 0.01781453546116992 0.0005930929132304582 -0.07926020171381423 0.00875099736758277 0.0006171379036194342 -0.0762805900294916 0.02640451471374468 0.0003507040163222764 -0.08210166538484959 0.02649337528750853 0.0003887269291244618 -0.08501066774450422 0.01741598049261796 0.0004462173933897998 -0.08203938418751582 0.01756222909773104 0.0004785824556843675 -0.08211815592923695 0.008529003134248227 0.0005570561513350328 -0.07913075197674994 0.0003708683949974166 0.000509816379802217 -0.07338834970884991 -0.008067900204729455 0.0005061840848584176 -0.07050805068987573 -0.02681475136484668 0.001010676731471232 -0.07917192429348725 -0.0004583106360034461 0.0006295160691374338 -0.08171825705749974 -0.008838931690526438 0.0007537183202072691 -0.07894603765839284 -0.02616551717833075 0.0007825156817579849 -0.07363308271287855 0.01708258029274451 0.0003841981154368883 -0.08470528620022594 -0.0002958900017672288 0.0005865508460061302 -0.07893274935089906 0.008328156143378198 0.0004819828593285359 -0.07612754463009462 0.008377801207434719 0.0005118568148929296 -0.07905232381013833 -0.0001741774564560103 0.0005963679782022506 -0.07614403729094338 -2.600988159070887e-05 0.0005558973334840909 -0.07622529627025412 -0.008461744129369373 0.0006379350197005546 -0.0733421664385808 -0.0248120986797504 0.0001866417312585736 -0.06512023044712165 -0.01652953794109946 0.0003758793367918587 -0.06782201668624555 -0.02531030938242611 0.0004075683433764064 -0.06798659493708245 -0.0250504118581294 0.0002666796932508777 -0.0679743198803526 0.01798040013333102 0.0006704682772969452 -0.07927133596926403 0.0265810754489621 0.0004374977838785334 -0.08217264485840634 0.01769409809059237 0.0005483365418237664 -0.07926401264764046 0.0004913057655749715 0.0005545727512089086 -0.07338453877502366 0.02624247212323897 0.0003283758261298791 -0.08490363451764776 0.01751753735537495 0.0004615427742675094 -0.07919303317408372 0.008479358070191706 0.0005271821957706392 -0.07620597279670624 0.0001917913972783441 0.0005687492372689431 -0.07340410194434364 -0.01635046094338039 0.0003169464793251325 -0.0678062644507518 -0.02684696705396427 0.001137872078338566 -0.07610725075762996 -0.01792415968936346 0.0009672778108385691 -0.07891939806131174 -0.02697697775604897 0.00111134456662965 -0.07901894667294532 -0.02668474066276198 0.001037204243180148 -0.0762602283781719 -0.008916694190947067 0.0007905062055123404 -0.07583780105527015 -0.008959023257854862 0.0007935948744254566 -0.07878467321013183 -0.008796602623618643 0.000750629651294153 -0.07599916550353114 -0.01771960423125338 0.0008635213067670355 -0.07612550352699199 -0.02615523116639648 0.0009180172237338576 -0.07068452117298277 -0.01741587111134335 0.0008143851604049115 -0.07342252556238746 -0.02633887271897808 0.0009272768158777942 -0.07354886358584831 -0.02598187562574915 0.0007732560896140483 -0.07076874030001302 0.02588114756783749 0.0001653229298561011 -0.08184486971965717 0.02598078855028537 0.0002356852828967914 -0.08477523668505155 0.01698293931029662 0.000313835762396198 -0.08177491923483156 0.01715429691966436 0.0003535268501567122 -0.08191098635491961 0.008206443598066979 0.0004721657271324153 -0.07891625669005028 4.058947046483435e-05 0.0005235499008268399 -0.07332567377773204 -0.008549072655033033 0.0006720326619287379 -0.07036371000186922 -0.008612791855661626 0.0006913928795023517 -0.07326211997683069 -0.008398024928740781 0.0006185748021269408 -0.07044375646361933 -0.01717879637006742 0.0006502638087114885 -0.07060833471445624 -0.02533663373340385 0.0005361394846327025 -0.06519353908830329 -0.01679180546792619 0.0005506282134789232 -0.06785867100683637 -0.02557257690925283 0.0005823172200634708 -0.06802324925767328 -0.02507436620657712 0.0003613906079456381 -0.06515688476771248 0.02684576965424497 0.0007379039484697306 -0.07643464585719349 0.02680170291921224 0.0006310977499522606 -0.07933913509457829 0.02696756759137334 0.0007084731140187476 -0.07935026935002809 0.01785860219620264 0.0006998991117479282 -0.07635571247642942 0.02649728744728199 0.0005139628298596393 -0.0764577009185482 0.02662746181573075 0.0005191271906472148 -0.07935066262525564 0.0175639237221436 0.0005431721810361908 -0.07637105094093302 0.01768436109272116 0.0005879285524428826 -0.07636724000710678 0.008756288281485778 0.0006564445581624935 -0.07042705248874051 0.008693424139245495 0.0006144130451876179 -0.07335572672602916 0.008813861509823051 0.0006591694165943096 -0.07335191579220293 0.0004337325372376988 0.0005518478927770924 -0.07045967547156123 0.02614283114079109 0.0002580134730891888 -0.08197326755225337 0.01736633542856144 0.0004163434378254061 -0.0791146050074721 0.008507232173635573 0.000536087416247898 -0.07048459985247177 0.008568896085320393 0.0005542344742303202 -0.07338450040789479 0.0001301274855935227 0.0005506021792865208 -0.07050420138892061 0.0003092044833125952 0.0004916693218197947 -0.07048844915342688 -0.007716523481382377 0.0003542314962379118 -0.06471546291734849 -0.007981750341915454 0.0004596742192815278 -0.06761963292135897 -0.007802673344196379 0.0004007413618148016 -0.06760388068586523 -0.01626431108056638 0.0002704366137482426 -0.06491784668223506 -0.01788183062245567 0.000964189141925453 -0.07597252590645004 -0.000415981569095651 0.0006264274002243176 -0.07877138490263805 -0.01753596267867177 0.000854261714623099 -0.07326116111412645 -0.01735215191071476 0.0007950249428312977 -0.070524115587426 0.01710465185560784 0.0003236528945923185 -0.07898620717487589 0.007973448708906317 0.0003774852358755651 -0.07581243044607537 0.00802908988083104 0.00041991691540593 -0.07875869959804066 0.008150802426142257 0.0004297340476020505 -0.075969987538085 -0.000351531173691951 0.0005441191664757653 -0.07598648019893375 -0.0001104582558274165 0.0005770077606286368 -0.07324562731598191 -0.01694285319421844 0.0006040860732807202 -0.06777862454508626 -0.008080703220274821 0.0004976148216993204 -0.06479513126472529 -0.008163840211361673 0.0005313658820122321 -0.06765946709504736 -0.01670866847683933 0.0005168771531660113 -0.06499433517651429 -0.01644640095001261 0.000342128276478947 -0.06495768085592346 0.02667152855076348 0.000625933389164685 -0.07644617338787085 0.02645090108051334 0.0004323334230909579 -0.07927968315169889 0.01762678786438388 0.0005852036940110663 -0.07344237670364435 0.008631760227560676 0.0005962659872051957 -0.07045582617060614 0.02613036337149518 0.0002712763853555697 -0.07631637228498951 0.02626743904261993 0.000310990200838923 -0.07920901883491954 0.01722925975743669 0.0003766296223420528 -0.07622195845754207 0.0173804616842502 0.0004218289587841561 -0.07630038662415367 0.008417694158506885 0.0005090351377882169 -0.07330607224128319 0.0003953543461265975 0.0004451594562429049 -0.06760003138491014 -0.007898613350828599 0.0004259231589686161 -0.06475529709103689 -0.02650109911018038 0.001027944651036212 -0.07339588596530636 -0.0004716227410203741 0.0005839957206939527 -0.07582511575067274 -0.00873288342299005 0.0007312694337205391 -0.07310075552856968 -0.02574593244990016 0.0007270783541832801 -0.06793903013064302 0.0169272981383719 0.0002714040828658331 -0.07882865008286627 -0.000287811973063358 0.0005247589489021515 -0.07308807022397229 0.008196761600508336 0.0004194083277019237 -0.07032893230305952 0.008262458871943266 0.0004506955935152298 -0.07322823846657706 -0.0001761555272623474 0.0005457204948153307 -0.07034632115246436 -2.510780097009658e-05 0.0004922626350135338 -0.07042636761421449 -0.008314887937653927 0.0005848237418140291 -0.06757942063329725 -0.0242351765330804 2.206407161992276e-05 -0.05950322338549574 -0.01615793987667761 0.0002598394466596216 -0.06214917732511051 -0.02478590513324212 0.0002791017781263126 -0.06234838123689951 -0.02452363760641539 0.0001043529014392482 -0.06231172691630869 0.01780102896786537 0.0006971742533161121 -0.07343084917296699 0.02631382540938858 0.0003926196076076045 -0.07638703660176885 0.01750225981045878 0.0005250251230537686 -0.07347115038550997 0.0005198824000517011 0.0005053380272002026 -0.06757125770304449 0.02600575546966633 0.0002182996576058354 -0.07908062100232335 0.01731879777256538 0.0004036819008017339 -0.07340048606873065 0.008351996887071955 0.0004777478719749108 -0.07040676607776564 0.0002132644766803769 0.0005168511189736092 -0.06763986555859852 -0.01597585000723139 0.0001881477839289173 -0.06210934315142211 -0.02648434670586018 0.001189620870390033 -0.07033635532089866 -0.01770052044840362 0.0009900635379511869 -0.0730870781880844 -0.02666565687991223 0.0011637464743643 -0.07322180303926432 -0.02631978893612833 0.001053819047061946 -0.07051043824694071 -0.008795914398876096 0.0007823232090009182 -0.06999480810914877 -0.00885630429491158 0.0007864147072566293 -0.07291630458220946 -0.008672493526954563 0.0007271779354648281 -0.07017925905550899 -0.01747557278263629 0.0008501702163673878 -0.07033966464106575 -0.0256849111258759 0.0008970651155412731 -0.06502870163518655 -0.01711699189045447 0.0007845488887350054 -0.06769620581852788 -0.02592007114613619 0.0009075411696375653 -0.06785661140408465 -0.02551077242963987 0.0007166023000869878 -0.06511112036174492 0.02558718132131409 1.981577832001657e-05 -0.07601631667037885 0.02573416444457578 9.256935408805886e-05 -0.078930593195018 0.0167803150151102 0.0001986505070977908 -0.07591437355822711 0.01695766873234614 0.0002508993188242762 -0.07607193065023674 0.008085105154707325 0.0003984467817887444 -0.07307068137456743 5.802919011675765e-05 0.000458511574700622 -0.0675620317838924 -0.008386486340019549 0.0006310840652327813 -0.06463812627816828 -0.008467779497526289 0.0006515583635807595 -0.06750091814001874 -0.008233594780147185 0.0005643494434660508 -0.06471662877144679 -0.0168615600367117 0.0005836117749327418 -0.06491583268323578 -0.02476166738344926 0.0004405357139799063 -0.05962676665169645 -0.01642118530186204 0.0004690752678396133 -0.06221094895821087 -0.02504915055842655 0.0004883375993063044 -0.06241015286999987 -0.02449842195826483 0.0002312998927999145 -0.05956499501859609 0.02650010978559836 0.0007972487448529037 -0.07065404728797943 0.02649869861644018 0.0006556057873562716 -0.07355587410326382 0.02667293971992166 0.0007675763466613171 -0.07354434657258646 0.01762819903354207 0.0007268466515076986 -0.07054054988835996 0.02613647097083265 0.0005024134891446318 -0.07072375803684169 0.02631687920905732 0.0005081881595021355 -0.07359072947769493 0.01732185157223411 0.0005192504526962648 -0.07060417894465673 0.01744637962615921 0.0005794290236535626 -0.0705754052627911 0.008604492031359585 0.0006502078487929919 -0.06464643996289712 0.008555862102497577 0.0005931476325204449 -0.06756551990768445 0.00868039015642268 0.0006533262034777427 -0.06753674622581882 0.0004439842749886041 0.0005022196725154518 -0.0646809514401228 0.02585877234640463 0.0001455460818377931 -0.07616634447768418 0.01716356248600176 0.0003453423565287466 -0.07332265229402452 0.008349136183986408 0.0004981789220196311 -0.06475534081327843 0.008428184178810989 0.0005171331691337644 -0.06761997033287509 0.0001342164818557944 0.0004978968718594757 -0.06477523603900184 0.0003163063513020154 0.0004262052091287714 -0.06473540186531346 -0.007512974144655481 0.0002586699530662171 -0.05902842275647727 -0.007796838682465151 0.0003781423873827687 -0.06191177701060127 -0.007614748813018928 0.0003064507246520644 -0.06187194283691287 -0.01587407533886794 0.0001403670123430699 -0.0592658230709865 -0.01764013055236814 0.0009859720396954757 -0.07016558171502371 -0.0004112328449848886 0.0005799042224382416 -0.07290361927761206 -0.017240412762376 0.0008396941622710956 -0.06751175487216765 -0.01703569873294772 0.0007640745903870271 -0.06483341395667741 0.01689197146091121 0.0002196120530109701 -0.07317262448671918 0.007832053895275136 0.0002893393424541442 -0.06997048813638 0.007902751302090727 0.0003334122891648547 -0.07289145929122769 0.008014407747891736 0.0003543738350780339 -0.07014971021971976 -0.0003585093798789477 0.000480686002191441 -0.07016709906912461 -9.486236975560572e-05 0.0005252461964673524 -0.06748352929061389 -0.0165740768617344 0.0005358098896063437 -0.06213244646493236 -0.007880650082849053 0.000427950075265174 -0.05915759720626159 -0.007980676651561935 0.0004627824484822472 -0.06197636423549344 -0.01632115873314915 0.0004342428946225401 -0.05939218192897902 -0.01605791330796472 0.0002250070734425484 -0.05933041029587867 0.02631829037821551 0.0006498311169987677 -0.07068890266241057 0.02613341717116392 0.0003868449372501008 -0.07352006516091561 0.01737048150109612 0.0005763106689688118 -0.06768509899986941 0.008476814107672996 0.0005741933854063114 -0.06470089038808777 0.0257575367490042 0.0001890413491902032 -0.07058344448747091 0.02594395006024969 0.0002301588672728864 -0.07344990838623019 0.01697714917475627 0.0003042248384460634 -0.07045618839526521 0.01713238446131989 0.0003625643827190506 -0.07053402216997134 0.008272948892247372 0.0004587936248607773 -0.06754213655816896 0.0004180810196654631 0.000378424437542924 -0.06189188178487785 -0.007696812113752267 0.0003433100141656955 -0.05909300998136943 -0.02608462891586804 0.001043342992965653 -0.0676825284780426 -0.0004819302518004791 0.0005358312757275312 -0.06998264812276438 -0.008591200369447822 0.0007067036371168497 -0.06731646719365852 -0.02522328925466258 0.0006688004147605897 -0.0623277341434415 0.01670961760829461 0.0001545775603870804 -0.07299340240337943 -0.0002772162223722069 0.0004602117038434628 -0.06730430720727415 0.008032602810752 0.0003546091145176859 -0.06460137681971941 0.008114682205630167 0.0003870087211098048 -0.06746515456138946 -0.0001769417646337737 0.0004928465898752335 -0.06461975154894384 -2.405020476141037e-05 0.0004261119681085032 -0.06469825404222235 -0.008133568211434301 0.0005295170702489776 -0.06189786174221493 -0.02355606218439035 -0.0001462087468138501 -0.05399853326649055 -0.0157183561336197 0.000140870664225662 -0.05657806523637607 -0.0241588647839198 0.0001471634835830281 -0.05681264995909349 -0.02389561935873537 -6.207233759696365e-05 -0.05675087832599314 0.01755230090847897 0.0007237282968229478 -0.06765024362543827 0.02594700385991842 0.0003457274191674175 -0.07065360126215631 0.01724280357740953 0.0005002962055821313 -0.06773954942506005 0.0005457589433520526 0.0004544389009296045 -0.06183743135968719 0.02567235903515915 0.0001044285637551099 -0.07329988057892489 0.0170533364664953 0.0003436101356049171 -0.06766939265037467 0.008190869497369205 0.0004263940182686585 -0.06467835881649892 0.000234243050568678 0.0004630644986424025 -0.06195646900977 -0.01553451816452292 5.623060312618353e-05 -0.0565134780114839 -0.02601662507926714 0.001240593053721544 -0.06463819112317819 -0.01740626973907161 0.001011458131361231 -0.06731649961616347 -0.02625048589256366 0.001215106962055789 -0.06748727322203843 -0.02585076810257152 0.001068829084631409 -0.06483344637918237 -0.008638012613570624 0.0007727122216983645 -0.06422280113576384 -0.00871696350622336 0.0007775177153496413 -0.0671088046224563 -0.008512249476795086 0.0007018981434655728 -0.06443046370696606 -0.01716146186972326 0.0008348886686198187 -0.06462575138547519 -0.0251091925881585 0.0008742813736165433 -0.05946636276760048 -0.01674783946408902 0.0007526827194246622 -0.06205224452288438 -0.0253970518570172 0.0008856732445789081 -0.06224753220139351 -0.02493542998580388 0.0006574085437982247 -0.05954656470964847 0.02519650873977748 -0.0001298910435521693 -0.07023965345535239 0.02539184503054578 -5.503763261607634e-05 -0.07312798506286561 0.01651428131752631 7.972414945098743e-05 -0.0701050707958662 0.01669663517014291 0.0001447586420748772 -0.07028429287920596 0.007932328353013567 0.000321974228485915 -0.0672859324780497 7.597636395147329e-05 0.00039127959489143 -0.06187948701299049 -0.008187884381340216 0.000588542392175353 -0.05900437177081259 -0.008287185360679881 0.000609813228704067 -0.06182124902449043 -0.008034267232094635 0.0005082462337202635 -0.05908098448853709 -0.01647477588239473 0.0005145390530776296 -0.05931556921125452 -0.02408141718540373 0.0003424229208115509 -0.05417366320124495 -0.01598103363412639 0.0003851864980383624 -0.05666563020375327 -0.02442154228442649 0.0003914793173957285 -0.0569002149264707 -0.02381873968489704 9.810708699885041e-05 -0.05408609823386774 0.02604987123347775 0.0008576661246596398 -0.06494424252710507 0.0260931711021552 0.0006800398069021358 -0.06783400028197339 0.02627499050953806 0.0008274574347562718 -0.06779914490754224 0.01732718163241867 0.0007539369867263159 -0.06479534124500108 0.02567275799749641 0.0004902523863761642 -0.06506188782255781 0.02590461448416453 0.0004963329377603979 -0.06789282292969975 0.01701094709074141 0.0004942156541978976 -0.06490861431791811 0.017138625014428 0.0005702301175845781 -0.06485416389272747 0.008415131469085619 0.0006438233118772986 -0.0589555774681662 0.008382133826536013 0.0005710011169484648 -0.06185545914072231 0.008509811750222602 0.0006470155803351452 -0.06180100871553165 0.000451078662215069 0.0004512466324717578 -0.05899200011232172 0.02547702274439084 2.957515281901695e-05 -0.07041154897141165 0.0168950697798781 0.0002718252318539445 -0.06759241065359514 0.00815545675995499 0.0004593020587473464 -0.05911716440137869 0.008252296471970698 0.0004787404903834887 -0.06193625260732856 0.000137403338552969 0.0004436260670062602 -0.05913738080382014 0.0003212413076497545 0.0003589860059067817 -0.05907279357892798 -0.007277729864180003 0.0001612873412742452 -0.0534523307913788 -0.007579189973514528 0.0002946187082697096 -0.05630496399882019 -0.007395352004417741 0.0002099786471702311 -0.05624037677392803 -0.01541689602428518 7.539297230197564e-06 -0.05372543202893466 -0.01732731884641888 0.001006652637709954 -0.06443049612947101 -0.0004029793591477432 0.0005310257820762543 -0.06709664463607191 -0.01687360260086456 0.0008234967976574539 -0.06184458195168216 -0.01664853848474936 0.0007314118828959481 -0.05923536726920654 0.01661455577526474 0.0001123590354827583 -0.0674205151375359 0.007660103962607722 0.0001985174160663197 -0.06419934736772256 0.007746078928941429 0.0002439283792602319 -0.06708491775205128 0.00784635338667986 0.0002765632652920028 -0.06440036209372099 -0.000363191188705913 0.0004148007406495504 -0.06441873682294541 -7.7640785294107e-05 0.0004715757533465194 -0.061802874295266 -0.01613465078337197 0.000465482656493452 -0.05658901748602877 -0.007646104246147627 0.0003568214979733679 -0.05363220295458662 -0.00776337716449834 0.0003923857866192709 -0.0563949000804241 -0.01586376071577568 0.0003496222093924594 -0.05390293307791579 -0.01560108321526899 0.0001053063755797589 -0.05381536811053858 0.02586131461548708 0.000673959255517902 -0.06500306517483144 0.02571514737325031 0.0003396468677831837 -0.06782266615501437 0.01704394473329101 0.0005670378491267314 -0.062008732645362 0.008285294114520305 0.0005515626853123225 -0.05903637093477244 0.0252837730976305 0.0001046300500256355 -0.06492298088020416 0.02552065492331735 0.0001468356996079193 -0.06775321268383752 0.01665818795419125 0.0002296195822716607 -0.06476217884996177 0.01681645464080846 0.0003014044860226333 -0.06483916084674129 0.008094029785353493 0.0004069555866325161 -0.06185927061054905 0.000438863447887493 0.0003102947000107958 -0.05628474759637875 -0.007461917055163815 0.0002590544196238066 -0.05354226687298271 -0.02556290883371282 0.001057437213669044 -0.06205227694538933 -0.0004889543254814502 0.000485614818882342 -0.06421107425174319 -0.008412948497455419 0.0006806273069368587 -0.06161358645328821 -0.02459530488678111 0.0006083521472140471 -0.05682001298442271 0.0164283063511926 3.43131862570752e-05 -0.06721950041153747 -0.0002638902093662471 0.0003935299041208364 -0.06160185956926758 0.007835028083006105 0.0002882388723827949 -0.05896543062755506 0.007933815446879051 0.0003214239934502404 -0.06178340372363723 -0.0001764281491670548 0.0004383906322790739 -0.05898490119918382 -2.281099992147446e-05 0.0003580944738239844 -0.05906151391690832 -0.007916994313743922 0.0004726819450743604 -0.0563182873626996 -0.02277289926749124 -0.0003172514811650811 -0.04862780353049801 -0.01520950175681943 1.978500840414338e-05 -0.05113000324254231 -0.02342715822644748 1.258571982323492e-05 -0.05140073336587148 -0.02316448072594079 -0.0002317301139894656 -0.05131316839849427 0.01723250135128168 0.0007507447182684691 -0.06194990999763562 0.02547826554756346 0.0002974412182008998 -0.064992434351381 0.0169141073787257 0.0004747772225617553 -0.06208952611196825 0.0005687008024528083 0.0004025553265757719 -0.05620395412977249 0.02524014091870399 -1.263049676326689e-05 -0.06758131716777829 0.01671961492879274 0.0002819660543864909 -0.06202007264079143 0.007995242421480548 0.0003737704655650706 -0.05904129751446688 0.0002546762569036816 0.0004080617783603571 -0.05637468367798265 -0.01502531456583562 -7.798206994541793e-05 -0.0510400671609384 -0.02544132764528689 0.001291345127786406 -0.05903348439240547 -0.01703967012942875 0.001032028674742385 -0.06162814276408465 -0.02572897636227701 0.001265969090753975 -0.06183583775779183 -0.02527526011672269 0.001082813250701475 -0.05924992358000298 -0.008441998474866359 0.0007622956389018174 -0.05854250650998235 -0.008540005544218491 0.000767503930300091 -0.0613826538228731 -0.008314941428103288 0.0006754190155385852 -0.05877343914039747 -0.01677559553151243 0.0008182885062591802 -0.05900443463879142 -0.02442572511955484 0.0008503038987843072 -0.05401857597037561 -0.01630680475044752 0.0007194231454798301 -0.0565114738705941 -0.02476745885385667 0.0008622926362004252 -0.05674246936898804 -0.02425357115247928 0.000596363409797929 -0.05409611958581027 0.02470711362218248 -0.0002831489282783153 -0.06453505575202481 0.02495181118097998 -0.0002065199859152423 -0.0673873546036886 0.0161836087923951 -4.231575610599783e-05 -0.06436720155987369 0.01636985821646724 3.573009311968529e-05 -0.06456821628587212 0.007747566022806912 0.0002433781442245573 -0.06158238899763881 9.446191842923815e-05 0.0003225301851780814 -0.05629881679107084 -0.007952391929186125 0.0005450902076224554 -0.05348348515763251 -0.00807013815526317 0.0005668162998989041 -0.05624392846422255 -0.007799248087666876 0.0004509558527979117 -0.05355784405610957 -0.01601690455729492 0.0004437565642170031 -0.05382857417943872 -0.02329367961648709 0.000242625378013066 -0.04885568292739022 -0.01546989193131736 0.0002997234379932169 -0.05124394294098841 -0.0236875484009454 0.0002925241494123084 -0.05151467306431758 -0.02303328944198917 -3.731305157600761e-05 -0.04874174322894412 0.02549255116509445 0.0009197746887301762 -0.05932585627643801 0.02558265458129543 0.0007050135375531703 -0.06219387204949792 0.0257712111992861 0.000888720406694908 -0.06213504940177153 0.01695384131709004 0.0007817990003037374 -0.0591407168723021 0.0251036973653798 0.0004781282087703467 -0.05949262887776442 0.02538822768143811 0.0004841902975732554 -0.06227725835016111 0.0166295770626674 0.0004687151337588465 -0.05930489663957155 0.01675941441723271 0.0005609757603238226 -0.05922410317296531 0.008187329523201663 0.000637964412713067 -0.05337559255299127 0.008171393141578324 0.0005486332357302066 -0.05624637847718498 0.00830123049614364 0.0006408938622951828 -0.05616558501057873 0.0004547998295108299 0.0003996258769936561 -0.05341396167218503 0.02499544335990649 -8.925943912633993e-05 -0.06472901831611449 0.0165594005903183 0.0001964344612042151 -0.06194420575387961 0.007925389951684399 0.0004201441550611313 -0.05359104793641147 0.008040423355819695 0.0004397231069042388 -0.05635410616889508 0.0001396428527683864 0.0003884828265172496 -0.05361162544549904 0.0003238300437521983 0.0002907157481676883 -0.05352168936389513 -0.007010368194115639 6.28670996018708e-05 -0.04800884618323541 -0.007328236220131633 0.0002098442987876193 -0.05082052456891101 -0.007144049029147821 0.000112077220438058 -0.0507305884873071 -0.01489163373080344 -0.0001271921907816052 -0.04831832485686671 -0.01694166306007662 0.001026820383344112 -0.05878799545119391 -0.0003909472561293178 0.0004804065274840685 -0.06137092693885245 -0.0164338617972106 0.0008062997688430623 -0.05628054124017898 -0.01618905852437048 0.0006976970532033813 -0.05375103056400406 0.01627107085259429 2.544972052239775e-06 -0.06175024318978993 0.007457182977311163 0.000105682883468788 -0.05851969560152194 0.007558643469959443 0.0001521001497675539 -0.06135952148462225 0.007646105530158634 0.0001969608779257915 -0.0587425631145385 -0.0003653507020145255 0.0003471126378220704 -0.05876203368616727 -5.868192309000948e-05 0.000416664540002625 -0.05622445789259378 -0.01562303577283661 0.0003938577928177607 -0.05116958404251136 -0.007376339766680973 0.0002849840641129045 -0.04824037631495825 -0.007511222006414299 0.0003209027810431362 -0.05093628963477243 -0.01533500969158403 0.0002638047210629852 -0.04854802962117423 -0.01507461951708611 -1.613370852608835e-05 -0.04843408992272813 0.02529812426523713 0.0006989514487502615 -0.05940924257710122 0.02519373523150516 0.0002913791293979911 -0.06220780487898429 0.01664551344429073 0.0005580463107417069 -0.05643411071537784 0.008056359737443031 0.0005290542838870992 -0.05348332024470137 0.02470678802409722 1.873367327509181e-05 -0.05935552146347524 0.02499528056086386 6.168186165036364e-05 -0.06213925117183969 0.01627090805355166 0.0001534862728289433 -0.05916047604551514 0.01643112239202611 0.0002390178660112191 -0.05923634293242697 0.007880209017345251 0.0003541915137219631 -0.05627823928198326 0.0004575108787843798 0.000241505627331501 -0.05079994705982344 -0.007193353980398305 0.0001739255818573876 -0.04812461124909683 -0.02493352638242086 0.001070824513285356 -0.05652603018139053 -0.000492407748777597 0.0004339892611853026 -0.05853110105575214 -0.00819719520202624 0.0006536929232621363 -0.05601299583380742 -0.02385970236802096 0.0005464646383986865 -0.05143712944888291 0.01608214829974682 -8.873302240476364e-05 -0.06152737567677337 -0.0002476044759374811 0.0003253865455456217 -0.05600159037957722 0.007603397593886 0.0002210037569197239 -0.05344208060186888 0.007719212838446052 0.0002546213146512594 -0.05620375561471197 -0.0001744971676500618 0.0003830469822710896 -0.05346278287975069 -2.135332613081376e-05 0.0002889126274465459 -0.05353714177822776 -0.007664365847933549 0.0004150371358676799 -0.05086193073629537 -0.02188388163248061 -0.0004899843096086507 -0.04341318897542073 -0.01463011069958079 -0.0001025001227478731 -0.04582678264518949 -0.02258878062448385 -0.0001236794657977923 -0.04613443595140547 -0.02232839044998593 -0.0004036178953868659 -0.04602049625295937 0.01683994034414806 0.0007788695507216216 -0.05635072441471464 0.02490524269473851 0.0002484309410227192 -0.05942407517061983 0.0165145436585321 0.000449136181915739 -0.05654183840708794 0.0005884806645430124 0.0003504157561574689 -0.05069221936811334 0.02470695082313985 -0.0001322076275016118 -0.06194528860775003 0.01631608898789081 0.0002194389141681116 -0.05647328469994335 0.0077643937727852 0.0003205739559904276 -0.05351656426914017 0.0002745250925017136 0.0003525641095870179 -0.05091571212568485 -0.01444712491329813 -0.0002135586050033899 -0.04571101757932806 -0.02475602188091281 0.001342446831792843 -0.05354346692389143 -0.01659901017788958 0.00105237123534733 -0.05604298671693689 -0.02509867476309985 0.001316895979789624 -0.05628847565814845 -0.02459087350023383 0.001096375365288575 -0.05378102144713352 -0.00820689560485598 0.000751736122542851 -0.05297515666308033 -0.008324447039861169 0.0007570158807223342 -0.05575883158653134 -0.008079643767021052 0.0006484131650826532 -0.05322932091035642 -0.01631631036220541 0.000801020010663579 -0.05349686631672797 -0.02363217533198344 0.0008257980415552342 -0.04870686404223327 -0.01579228363058478 0.0006854441245888448 -0.05109517459993289 -0.02402895022576914 0.0008380509701697706 -0.05136272000630444 -0.02346292747423526 0.0005342117097841501 -0.04878127348481175 0.02411698813900369 -0.0004392335884862035 -0.05892317284602788 0.02441205088059308 -0.0003611912583822594 -0.06172911429902634 0.01578708555815743 -0.0001667753525087077 -0.0587214342237749 0.0159760081110049 -7.549735805170433e-05 -0.05894430173679147 0.007530290285598581 0.0001633433201942559 -0.05598088810169541 0.0001135289136025134 0.0002529939105163142 -0.05084122845841357 -0.007679124786626209 0.0005014544939991696 -0.04809694157851685 -0.007815758357906167 0.0005232723508108124 -0.05079021336807468 -0.007527732276653591 0.0003932192790560371 -0.04816865894673755 -0.01548640220155665 0.0003720399360061178 -0.04847631225295353 -0.02239625184141061 0.0001420704231030864 -0.0436946967624511 -0.01488629580404579 0.0002135272436079954 -0.04596753653870467 -0.02284496572894885 0.0001923479005580762 -0.04627518984492066 -0.02214006673694561 -0.0001739569432527822 -0.04355394286893591 0.0248256624971934 0.000984208156854402 -0.05382000629023662 0.02496467993128661 0.0007311681828123743 -0.05665631758400053 0.02515910683114393 0.000951991422792289 -0.05657293128333732 0.01650649601019753 0.0008110862847837345 -0.05359779942161394 0.02442680714276181 0.0004667211480705166 -0.05403696423588752 0.0247652522540708 0.0004724246784204316 -0.05676479655682597 0.0161760985472231 0.0004434326515658239 -0.05381400608614949 0.01630706833298173 0.0005523427803917918 -0.05370627839443939 0.007920257615496445 0.00063332735276797 -0.04792812268522986 0.007922823783590421 0.0005267357539145507 -0.05075958531082066 0.008053793569349054 0.0006356458827405185 -0.05065185761911056 0.0004549447106904038 0.0003480972261849204 -0.04796848443423263 0.02441188808155046 -0.0002102499576055559 -0.05913934715475155 0.01615509280899161 0.0001198687150974078 -0.05639880103267206 0.007658146695582463 0.0003814271234528062 -0.04819839712093866 0.007791768323633431 0.0004007856392569687 -0.05089472252867506 0.0001409034644507456 0.0003332055937828553 -0.04821938671794845 0.0003238892507334123 0.0002221471115273385 -0.04810362165208704 -0.006710499473963447 -3.573899517821027e-05 -0.0427201542092953 -0.00704341962032221 0.0001246225344673471 -0.04548026526212677 -0.006860433834039543 1.356405221183027e-05 -0.04536450019626535 -0.01429719055322203 -0.0002628616523934304 -0.04306667159235801 -0.01648145874288439 0.001047091477167847 -0.05325931179348588 -0.0003748563137724076 0.0004287095030058194 -0.05574742613230113 -0.01591953546841971 0.0007887670820490426 -0.0508410103526568 -0.01565565005930482 0.0006636262677772018 -0.04840190281037506 0.01586019286644485 -0.0001091149157832398 -0.05618262672394838 0.00722291198276662 1.156044825182042e-05 -0.0529527142840264 0.007340047480038891 5.862166586030423e-05 -0.05573620494277418 0.00741315478832631 0.0001162821025857721 -0.05319739744294764 -0.0003647399732097517 0.0002783253279371378 -0.05321809972082946 -3.78635963701043e-05 0.0003612291254594467 -0.05076951109019286 -0.01503768831401841 0.000321762458551128 -0.04589581917048398 -0.007070615334607 0.0002132526554511835 -0.04300395181895578 -0.007223477550643986 0.000249118359782044 -0.04562216406695702 -0.0147334335880088 0.0001776615392771349 -0.04334932429070344 -0.01447724848354381 -0.0001383658270787336 -0.04320857039718826 0.0246262348199776 0.0007254646524624593 -0.05392848526306207 0.02456679758342952 0.0002427274106728042 -0.05669624284968139 0.01617353237912912 0.0005500242504192433 -0.05098254346055869 0.007789202155539455 0.0005073772381103881 -0.04806325990308426 0.02402426670886331 -6.789114020261656e-05 -0.05390204219618119 0.02436552736648027 -2.457873346376236e-05 -0.05662878182982821 0.01581383215137466 7.655630835855367e-05 -0.05367206139902504 0.01597482833027386 0.0001761265074292574 -0.05374654506629633 0.007630772144734231 0.000301215440186265 -0.05082023886140377 0.000473823610809508 0.000172844064137298 -0.04545927566511698 -0.006890557404285224 8.875683013648664e-05 -0.04286205301412555 -0.02419409860644812 0.001084122436674038 -0.05112516548306235 -0.0004919918110446791 0.0003816482853973356 -0.05296393547355337 -0.007943010195741094 0.0006265953082710103 -0.05053604912079859 -0.02301421358669702 0.0004839342323291602 -0.04620078040234218 0.01566995006088515 -0.0002138365701171915 -0.05593794356502714 -0.0002281064019297946 0.000256507471125495 -0.05052482793127162 0.007337088572571275 0.0001536640813251348 -0.04805273789030524 0.007470243083228637 0.0001873339191224293 -0.05074740924608706 -0.000171018107027467 0.0003275592876621521 -0.04807483973441104 -1.962559705484925e-05 0.0002193240727190196 -0.04814655710263174 -0.007374870060616604 0.0003573535747251766 -0.04555044669873631 -0.02088726486112707 -0.0006631168705055012 -0.03837737153247517 -0.01397894009786704 -0.0002249321075271588 -0.04069066167571547 -0.02164175835126884 -0.0002605232237012073 -0.04103603414746313 -0.02138557324680384 -0.0005765505900570759 -0.04089528025394795 0.01637296005634492 0.0008087677548111859 -0.05087406448773324 0.02422553692581256 0.00019941500393395 -0.05396950321603436 0.01604247691917213 0.0004240741357616614 -0.05111768067841309 0.0006048790707664994 0.0002987941787948799 -0.04532413844726257 0.0240706274239335 -0.00025356236434441 -0.05641260752110454 0.01584120670222289 0.0001567679916250948 -0.05105021965855992 0.007497617634076869 0.0002675456023889705 -0.04812556750562196 0.0002937656804877322 0.0002973398894519949 -0.04560117446994721 -0.01379888216754526 -0.0003494279328418557 -0.04054876287088523 -0.0239583379957377 0.001394459732542598 -0.04818989591329129 -0.01608261680029684 0.001073097927542725 -0.0505825262881858 -0.02435717993832525 0.001368453282167721 -0.05086668141859135 -0.02379525666386057 0.001110128887048916 -0.04844837997776228 -0.007931747142443178 0.0007417290484028274 -0.04754250977355724 -0.008069321373649579 0.0007467325854728392 -0.05025883321831878 -0.007805435964534694 0.0006215917712009986 -0.04781972567603705 -0.01578196123721331 0.0007837635449790307 -0.04812468690789526 -0.02272623555007286 0.0008014416249710192 -0.04355319254226823 -0.01520268016834954 0.0006514480594850944 -0.04582506706039254 -0.02317920544102815 0.0008136198332631267 -0.04613002829225075 -0.02256124369574174 0.0004717560240370528 -0.04362394465235966 0.02342413642988652 -0.0005973291740647314 -0.05342513866567791 0.0237705622844451 -0.0005182813812754675 -0.05617415575585289 0.01532352420632657 -0.0002928843629064555 -0.05318892647485216 0.01551376701188626 -0.0001881627085725038 -0.0534336096337734 0.007280000277668947 8.261226478847758e-05 -0.05050272608716582 0.0001332366189821374 0.0001834583683881591 -0.04552834485463052 -0.007367187186383481 0.0004584012785468282 -0.04286663765233534 -0.007523155986504845 0.0004799278862729989 -0.04548178961542609 -0.007218901260495241 0.0003358269669990058 -0.04293529473564556 -0.01488171951389704 0.0003002358508249572 -0.04328066720739322 -0.02138693259440438 4.181640758043402e-05 -0.03871296660965212 -0.01422877396450569 0.0001275345315158088 -0.04085845921430395 -0.02189159221790749 9.19434153417602e-05 -0.04120383168605161 -0.02113709872776572 -0.0003106502314625336 -0.03854516907106365 0.02404673908236938 0.001051593600002275 -0.04844832475811226 0.0242367731125656 0.000759157374036396 -0.0512426444969999 0.02443620078978139 0.001017900878428339 -0.05113416552417444 0.01598349834893291 0.0008424604763851227 -0.04818822372167106 0.02363956365241549 0.0004567297196359021 -0.04871631958292498 0.02403318539758864 0.0004617254338532093 -0.05137664190940625 0.01564885517399897 0.0004190784215443541 -0.04845735835193182 0.01577991063395597 0.0005450285362019361 -0.04832222113407741 0.007613149022209734 0.0006306129684046851 -0.04263534308954906 0.007635647858896098 0.0005060200459287457 -0.04541687010524385 0.00776670331885309 0.0006319701605863276 -0.04528173288738946 0.0004513247741231435 0.0002974369866132374 -0.04267774864942218 0.02372420156937492 -0.000332610157133674 -0.05366359043092955 0.0156806776407173 4.28864705612591e-05 -0.05097739004324321 0.007352957445851517 0.0003438970478681469 -0.04296103471051269 0.00750555207071699 0.0003626620856604766 -0.04557971591572567 0.0001411710556222592 0.0002785748516596652 -0.04298249326473423 0.000321228985944035 0.0001540790263449683 -0.04284059445990399 -0.006377781099387013 -0.0001336013726041254 -0.03760899428877722 -0.006724198216997006 3.982564142352911e-05 -0.0403064730538665 -0.00654414028667523 -8.46701838911678e-05 -0.04016457424903626 -0.01363252298025704 -0.0003983591215548132 -0.03799318291062619 -0.01594504256909044 0.001068094390472713 -0.04786620284342426 -0.0003544175798382782 0.0003766447483273239 -0.05024761202879182 -0.01532899134625802 0.0007715853366869233 -0.04554785115791274 -0.01504671136822817 0.0006299214517589236 -0.04320991509730178 0.0153806125012289 -0.0002218325463697983 -0.05073893827799158 0.006956962512773312 -8.305674984654489e-05 -0.04752009658644668 0.007089937247769966 -3.574815079736224e-05 -0.05023640543523654 0.007147025542672294 3.530366573929494e-05 -0.04778641723837596 -0.0003610811369264477 0.0002091988720763123 -0.04780851908248177 -1.504930690610301e-05 0.0003060326799359815 -0.04545968777132028 -0.01437705989039393 0.0002501088430636311 -0.04078980213099373 -0.006728171647958441 0.0001425088981336003 -0.03794514234582357 -0.00689939349128272 0.0001778807767923919 -0.04047454708238967 -0.01405755212118141 9.216265285701716e-05 -0.03832905447773784 -0.01380771825454276 -0.0002603039861859504 -0.03816125693914937 0.02384315136739243 0.0007541616598190888 -0.04858232217051862 0.0238319151806394 0.0001944192897166428 -0.05130918088955309 0.01562635633731261 0.0005436713440202936 -0.04567583133623702 0.007483053234030626 0.000487255008136416 -0.04279818890003087 0.02323385403688045 -0.0001544135108365128 -0.04858394864423782 0.02362906037287188 -0.0001111523255195647 -0.05124299542020951 0.01528547130472586 -3.747147556890226e-07 -0.04831834326727153 0.01544600036623146 0.0001135068063081467 -0.04839117288258824 0.007345023009211396 0.0002487805645966408 -0.04550688630040896 0.0004875881732322521 0.0001051478376320108 -0.04028501449964496 -0.006552976373672727 4.453762764737487e-06 -0.03777706831730039 -0.02334228677290528 0.001097950678756809 -0.04587154422777975 -0.0004873923148349321 0.0003293361492781412 -0.04753130318000195 -0.007649467164413329 0.0006000651634748277 -0.04520457371294628 -0.02205658407223862 0.0004216290162757266 -0.04113307957596017 0.01519054947132991 -0.0003401929619556382 -0.0504726176260623 -0.0002051123368050846 0.0001876722643501416 -0.04519336711939101 0.007035502424400908 8.70374955022991e-05 -0.04281922388147566 0.007186295498486091 0.0001203507884137169 -0.04543598088589045 -0.0001658423809912865 0.0002727193870245636 -0.0428429307669055 -1.755645510304613e-05 0.0001501450754767413 -0.04291158785021572 -0.00704767941717096 0.0003004550883402142 -0.04040588999907944 -0.01978137833440578 -0.0008350604725834354 -0.03354357746352482 -0.01325477499118211 -0.0003462757872249175 -0.03574435990467419 -0.02058415546440508 -0.0003966220325015006 -0.03612827203658847 -0.02033432159776642 -0.0007490886715444682 -0.03596047449799999 0.01582994405228956 0.0008411032842034802 -0.04554183392383065 0.02343670884464797 0.0001511581043996947 -0.04865013411358141 0.0154962605491335 0.0004003133837520245 -0.04583867714671883 0.0006176839614113606 0.0002485057979002799 -0.04012216868916314 0.02332899523338348 -0.0003758713424506222 -0.05100454365495787 0.01529340574136598 9.474176851581703e-05 -0.04577249167737525 0.007194229935126212 0.000215467271685223 -0.04289012929599417 0.0003123928989465386 0.0002432029730008736 -0.04045308852816812 -0.01307957971689639 -0.0004843309225937803 -0.03557628587615102 -0.02304599870804806 0.001447903380439152 -0.04299508146275723 -0.01548887292524562 0.001094816214420989 -0.04526879561815723 -0.02350216835189288 0.001421181556490875 -0.04559248868802426 -0.02288611712906046 0.001124672502705085 -0.04327413700251273 -0.007615623253105589 0.0007329897017642317 -0.04226687651696158 -0.007773685197774383 0.0007373593750835295 -0.04490469314525941 -0.007491405219744535 0.0005956954901555299 -0.04256675708464846 -0.01517092940158922 0.0007672156633676253 -0.04291003452961491 -0.02170563646878146 0.0007779003571360703 -0.038579954085743 -0.01453641182758247 0.0006181508178414491 -0.04072329586903917 -0.02221593600942716 0.0007896709910535447 -0.04106657331400562 -0.02154628453159292 0.0004098583823582521 -0.03864646034769756 0.02262657964391515 -0.0007565029244496756 -0.04806258913994361 0.02302535803690083 -0.0006769160492572034 -0.05074386390281076 0.01479177107834423 -0.0004197798371481102 -0.04779134286319514 0.01498183410824321 -0.0003014194215622704 -0.04805766351512443 0.00699623246858711 1.990372827877098e-06 -0.04516966023396117 0.0001536653882212333 0.0001147731968179497 -0.04038218311364961 -0.007015670475047859 0.0004167262142910295 -0.03781486763732195 -0.00719142883071567 0.0004375637464189288 -0.04034075264482864 -0.006871921061503149 0.0002796175562123149 -0.03788000499157276 -0.01420130153472612 0.0002292713109357318 -0.03826391712348703 -0.02026352434378509 -5.690396441334121e-05 -0.0339331048569073 -0.01349584799587176 4.280246686012956e-05 -0.03593912360136543 -0.02082522846909473 -7.543778416453588e-06 -0.0363230357332797 -0.02002245133909543 -0.0004459822184983884 -0.03373834116021606 0.02315334263204336 0.001122517836087659 -0.04323299101159749 0.02339645314222942 0.0007896237778617808 -0.04597465529726124 0.02360004085720637 0.001087055718044967 -0.04584065788485488 0.01538324582712654 0.0008765654022461722 -0.04293416705057328 0.02273938741705868 0.0004488500121631398 -0.04355256201974008 0.02318947553473708 0.0004527898658995209 -0.04613444080133253 0.0150461724314551 0.0003963735300156433 -0.04325679836512638 0.01517626821963421 0.0005397314902839124 -0.04309395255464457 0.007265314499236998 0.0006304985768420702 -0.03752000881629122 0.007309135972544257 0.0004871978123551085 -0.04024052176340195 0.007439231760723366 0.0006305557726233776 -0.04007767595292014 0.0004437666999249929 0.0002484486021189724 -0.03756450155253421 0.0229302168403978 -0.0004554582176430943 -0.04832326889209072 0.01513467823064068 -3.368800766710688e-05 -0.04570158626285674 0.007009078276383919 0.000308308195237415 -0.03790118549046911 0.007181017861117718 0.0003261026215527809 -0.04043111010049089 0.0001404533142127392 0.0002254085466855076 -0.03792316391814633 0.0003156485884984526 8.735341131664481e-05 -0.03775508988962317 -0.006011938021299802 -0.0002296964668722426 -0.03269870000222839 -0.006370054834629121 -4.359378436932111e-05 -0.03532192117402597 -0.006194859560343408 -0.000181648919738184 -0.03515384714550281 -0.01289665817785279 -0.000532378469727839 -0.0331211387328766 -0.01533081098057682 0.001090446541101692 -0.0426309789898594 -0.0003293303701661378 0.0003249664759588433 -0.04489348655170412 -0.01466062986094352 0.000755445029450151 -0.04042341530135229 -0.01436065347191466 0.0005973132857135499 -0.03819741086153247 0.01483104103415803 -0.0003347327144736882 -0.04544090651070963 0.006659073943943877 -0.0001772955657289364 -0.0422440734054328 0.006808018228358595 -0.0001301761577877406 -0.04488208499593974 0.006847288184172393 -4.512903511331864e-05 -0.04253164864345423 -0.0003540566212198019 0.0001405528564089458 -0.04255535552888406 9.915974676524917e-06 0.0002518818548966643 -0.0403170457593988 -0.01363959740941647 0.0001799111249388441 -0.03587398624711462 -0.006348230491007155 7.371358277586349e-05 -0.033086497445978 -0.006538201069482798 0.0001081112404547319 -0.03551581989590077 -0.01330587741739612 8.40480918126113e-06 -0.03350980115144264 -0.01306480441270647 -0.000380673444903786 -0.03331503745475141 0.02294636502455102 0.0007856839241253996 -0.04339277651566879 0.02298662072696957 0.0001472182506633135 -0.04606825533198895 0.01500235095814784 0.0005396742945026049 -0.04053628541801565 0.007137196387810458 0.0004694033860397426 -0.03771059715338016 0.02233314256312518 -0.0002399141774876019 -0.0434230683016729 0.02278349830000281 -0.0001971638441620573 -0.04600350847295535 0.01468432249376304 -7.643834099265135e-05 -0.04312114609157428 0.01484305000448835 5.199143519027253e-05 -0.04319205150609279 0.007022290350392413 0.000197672845369857 -0.04036020468597238 0.0004985701275420583 3.930586418258619e-05 -0.03529994274634875 -0.006180084256153478 -7.799144204818955e-05 -0.03289259872410319 -0.02237581758841475 0.001112901868787611 -0.04078751777425011 -0.0004782746545808556 0.0002778470680176476 -0.04225547496119719 -0.007315646864076724 0.0005748579580276305 -0.04004087207714176 -0.02098458040628327 0.0003604981963613646 -0.03625652947132515 0.01464282679392951 -0.0004668992450893059 -0.0451533312726882 -0.0001782982655519909 0.0001197153242810466 -0.04002947052137737 0.006698074392792805 2.200481517323526e-05 -0.03776375140572197 0.006866788408596856 5.452115533776718e-05 -0.04029148764359881 -0.0001587980411275262 0.0002193655147321324 -0.03778930952152196 -1.504862758281789e-05 8.225685665341779e-05 -0.03785444687577277 -0.006681950483027506 0.0002452198985334465 -0.03545068254164997 -0.01856463610043805 -0.001003789246254614 -0.02893559162565457 -0.0124564332957226 -0.0004650378317393752 -0.03101104453581628 -0.01941408022211157 -0.0005303466053339774 -0.03143434824128093 -0.01917300721742191 -0.0009194248594190245 -0.03123958454458969 0.01520932856564018 0.0008765082064648648 -0.04037649991394435 0.02253626499009193 0.000104467917337769 -0.04348781516070649 0.0148742328467213 0.0003785791037002774 -0.04072687375510459 0.0006266882389685986 0.0002004010549849138 -0.0351093544092598 0.02247986110352017 -0.0004982085509686388 -0.04574282872080826 0.01467111041975455 3.419700887490656e-05 -0.040662126896071 0.006853576334588362 0.0001651565052053251 -0.03783246844809554 0.0003304238926883822 0.0001910108890066392 -0.03549384146822355 -0.01228828706086892 -0.0006167428565634281 -0.03081714581394148 -0.02201686122482112 0.001503201464504087 -0.03798192430329381 -0.01481624223896335 0.001118095583134159 -0.04012440041012769 -0.02253142996643458 0.00147555242247162 -0.04048850288302552 -0.02186124884680129 0.001140550910820079 -0.0382809391945184 -0.007257631134345342 0.0007262316033536224 -0.03717115575852076 -0.007436627193725466 0.000729610652558927 -0.03971901613774118 -0.007136650804696601 0.000571478908822326 -0.03749301169792135 -0.0144816338015634 0.0007520659802448462 -0.03787555492213188 -0.02056816562752494 0.000755787330430852 -0.03380994007768794 -0.0137919180512864 0.0005862567723609407 -0.03581240385750494 -0.0211369010481532 0.0007668438437834611 -0.03619494708171547 -0.02041584498565501 0.0003494416830087554 -0.03387152246729762 0.02172236292670486 -0.000915665056449538 -0.04285768894004427 0.02217447128531 -0.0008360839904496067 -0.04546013903999394 0.01419071843532437 -0.0005464803110892372 -0.04255088117273853 0.01437893267555288 -0.0004143137804736195 -0.04283845641075996 0.006678574168368341 -7.764537527785056e-05 -0.04000391240557738 0.0001749219508928252 4.785919897454937e-05 -0.03542512442584998 -0.006623654810378688 0.00037723809222067 -0.03296428633944638 -0.006819662642713273 0.0003969821532558497 -0.03538957698838416 -0.006485942650692921 0.0002254758374982667 -0.03302539189271219 -0.01344358957708188 0.0001601670639036644 -0.03344869559817684 -0.01902383841588437 -0.0001526162499271948 -0.02937801036985339 -0.01268603445344576 -3.945133357566564e-05 -0.03123225390791569 -0.01964368137983473 -0.000104760107170268 -0.03165555761338034 -0.01879423725816121 -0.0005782027480909043 -0.02915680099775398 0.0221430719449399 0.001197475711843828 -0.03819678055573243 0.02244122968099929 0.000823162862003484 -0.04087467128773626 0.02264820728849163 0.001159996773965744 -0.04071488578366496 0.01470419322208845 0.0009139871443429491 -0.03785839468601182 0.0217236257861336 0.0004437430780558509 -0.03856799940266768 0.02223150660159614 0.0004462965451094953 -0.04106028071120388 0.01436635203125876 0.0003760256366466329 -0.03823459244656839 0.0144944701426853 0.0005371208274489606 -0.03804400410947945 0.006876159755179459 0.0006335942843994074 -0.03260551799404458 0.006942619015781688 0.0004709512398184111 -0.03525335174225684 0.007070737127208228 0.0006320464306207388 -0.0350627634051679 0.0004321108669398288 0.0002019489087635824 -0.03265210899813648 0.02202775274491502 -0.00057778961696857 -0.04314037862085858 0.01451560847795899 -0.0001089546811571833 -0.04059340985369743 0.006625799212283415 0.0002753985627652311 -0.03304145697580942 0.006817438744333666 0.000291853379001323 -0.03547132123313926 0.0001387843606381303 0.0001745560727705473 -0.03306397721089371 0.0003069305954918064 2.285104794649426e-05 -0.03287007848901891 -0.00561279206635904 -0.0003228784133878017 -0.02801325701400161 -0.005980511278683097 -0.0001245824153059691 -0.0305498772299898 -0.005812365043829421 -0.0002762874401300221 -0.030355978508115 -0.01208871408339854 -0.0006633338298212077 -0.02847442431982809 -0.01463724617958323 0.001114716533928855 -0.03757654003090728 -0.0002992785952007321 0.0002744680188123429 -0.03970761458197677 -0.01391289838093514 0.0007410094668922373 -0.03549054791810435 -0.01359591021895181 0.0005665127113257609 -0.03338711320856716 0.01421021865974883 -0.0004468301206381514 -0.04031072017288312 0.006329075029316253 -0.0002701843749577534 -0.03714745143337961 0.006494074486630065 -0.0002237399703433449 -0.0396957624194062 0.006513574711054529 -0.0001240897798922591 -0.03745560141955079 -0.0003432977228658026 7.327091966663805e-05 -0.03748115953535078 3.720979120705892e-05 0.0001996214536969526 -0.03536401887258417 -0.01282374661313153 0.0001123109211467376 -0.03117114835464989 -0.005929998526945079 7.929003992948116e-06 -0.0284508441803047 -0.006139114508976117 4.08212933844058e-05 -0.03076867081314135 -0.01247691847141473 -7.234362296712334e-05 -0.02891442727507904 -0.01224731731369156 -0.0004979301211308328 -0.02869321790297964 0.02193334886553675 0.0008206093949498395 -0.03838238997920006 0.02202838417462939 0.0001019144502841245 -0.04099553385217029 0.01429989277065653 0.0005386686812276291 -0.03558675869835613 0.006750979483731437 0.0004544964235823193 -0.032823487484927 0.0213196588020631 -0.0003233628384129619 -0.0384416413404881 0.02182640068259414 -0.0002816385079502818 -0.0409323548210805 0.01400886659742795 -0.0001506790116198633 -0.03810269637310503 0.01416436853922351 -7.527321587773485e-06 -0.0381714134154786 0.006661936802538109 0.0001487016889692332 -0.03540260419076569 0.0005065035729621874 -2.373992531128533e-05 -0.03052735699490552 -0.005771395296652059 -0.0001574747046974268 -0.02823205059715315 -0.02129251342617303 0.00112949439746747 -0.03589593219049087 -0.0004642780525145442 0.0002280236141979345 -0.03715930359595018 -0.006940642972362014 0.0005517348477871462 -0.03506772104898357 -0.01979600202170466 0.0003015855402518286 -0.03159397522377067 0.01402571897801055 -0.0005929247157036456 -0.04000257018671194 -0.0001472898905312179 5.352685863145831e-05 -0.035055868886413 0.006324286522915137 -4.047956587544096e-05 -0.03290890083392237 0.00651118045785397 -9.237375351102847e-06 -0.03533632611982217 -0.0001496841437317754 0.0001683792631726145 -0.03293659358668437 -1.197198404600912e-05 1.661700845021126e-05 -0.03299769913995018 -0.006276826668661884 0.000192583548106809 -0.03070756525987554 -0.0172355432056959 -0.001166618289789142 -0.02457775733925726 -0.01158277086632049 -0.0005793446428980967 -0.02651430075978098 -0.01812969081079013 -0.0006596172698581681 -0.02697788385455532 -0.01790008965306697 -0.001085203768021878 -0.02675667448245592 0.01450961585005968 0.0009155349981216177 -0.03540114927488851 0.02152164229409835 6.019011982144447e-05 -0.03850482037157789 0.01417471249920851 0.000359570820410541 -0.03580472818923855 0.0006316838444102098 0.0001553579355058029 -0.03030938750402309 0.02152101086438398 -0.00061951394743125 -0.04064966514026619 0.01397272900717326 -2.398213782386541e-05 -0.03574154915814876 0.006475042867599276 0.0001174594984448951 -0.0329751789048659 0.0003479003426691682 0.0001416637833790896 -0.03074615057805706 -0.01142416763602747 -0.0007447483515884716 -0.02629550717662944 -0.0208689750158822 0.001560595587039881 -0.03317396665570323 -0.01406330307511377 0.001143413595196752 -0.03517256120711199 -0.02144291812035166 0.001531898525771984 -0.03557794547949852 -0.02071857032170357 0.001158191458735367 -0.03349195336669558 -0.006856928119351728 0.0007221299375652724 -0.03227888109168067 -0.007057279626848535 0.0007241807704594474 -0.03472501842510071 -0.006740291464865208 0.0005496840148929712 -0.03262158371556353 -0.01371254687343833 0.0007389586339980621 -0.0330444105846843 -0.01931169441581932 0.0007355961089777961 -0.0292662895969475 -0.012967674613099 0.000556417100599233 -0.03111528796819694 -0.01993993002167213 0.0007456917197043241 -0.03153811483731772 -0.01916776641585185 0.0002914899295253007 -0.02932214998340044 0.02070956510349014 -0.001073505678517993 -0.03783317165725979 0.0212159640150975 -0.0009945853674837653 -0.04034543029865202 0.0135193200664032 -0.000671845026737873 -0.03749031154531969 0.01370381974814147 -0.0005257504316723787 -0.03779846153149088 0.006326680776115694 -0.0001553319704165972 -0.03502817613365099 0.0001971439979850287 -1.627528094124643e-05 -0.03067987250711354 -0.006190218460519024 0.0003407300153039757 -0.02833785298279551 -0.006406936635448855 0.0003589840537623228 -0.03065106966112095 -0.006060108493732052 0.0001743295096484619 -0.02839434858155011 -0.0126070284382017 9.405688268839042e-05 -0.02885793167632445 -0.01766570665963835 -0.0002434992342924582 -0.02507076535336553 -0.01179785259329172 -0.000117785115149755 -0.02676080476683511 -0.01834477253776136 -0.0001980577421098265 -0.02722438786160945 -0.01745062493266713 -0.0007050587620407999 -0.0248242613463114 0.02101357509085158 0.001276790520522414 -0.03336313671562669 0.02136860043849259 0.0008602667992891324 -0.03596556805914719 0.02157832351789574 0.001237133116183121 -0.03577995863567956 0.01394486742301552 0.0009551924024609106 -0.03298432735483563 0.02058953266332914 0.0004419835670437573 -0.03378537922884164 0.02115657922473137 0.0004428633225498041 -0.03617668931575466 0.01360766593780628 0.0003586910649044942 -0.03341341810232553 0.0137328462092543 0.0005377889257215824 -0.03319544861144311 0.006445203849243106 0.0006403749895449778 -0.02791600651534675 0.00653550153076326 0.0004578867761551044 -0.03047873174557808 0.006660681802211282 0.0006369846369721926 -0.03026076225469566 0.0004162058914420333 0.0001587482880785881 -0.02796463176467418 0.02101461195277662 -0.0006984342584654773 -0.03813740649887394 0.01382197266248912 -0.0001819212021442015 -0.03567527108720524 0.0062024563912216 0.0002458525384757369 -0.02840481601367421 0.006414127801752507 0.000260625550620484 -0.03072313649474182 0.0001362289321382606 0.0001268907712343425 -0.02842783009698945 0.0002948321624312799 -3.851293745603238e-05 -0.02820903651383791 -0.005180303713825165 -0.0004118286402000904 -0.02357738884450686 -0.005555151120385122 -0.0002019498181035711 -0.02601411651240578 -0.005396547890092102 -0.000367353526793946 -0.02579532292925423 -0.01120792345976053 -0.0007892234649946159 -0.02407757309188206 -0.01386295156761696 0.001141362762302577 -0.03272642387369194 -0.0002639265450177374 0.0002259727813037595 -0.03471316626253014 -0.01308431126758553 0.0007288630232715343 -0.03077258534431408 -0.01275095643816917 0.0005381630621408859 -0.0288020712898715 0.01351692581320264 -0.0005569926221967168 -0.03537103624559108 0.005966909315914946 -0.0003606237566432852 -0.03225366903114152 0.006147992172615599 -0.0003154040658005193 -0.03470056023226056 0.006145597919415042 -0.0002005516612593631 -0.03258128493253194 -0.0003283727472318709 8.307167788692351e-06 -0.03260897768529394 6.703403119805683e-05 0.0001501252247142673 -0.03062337690835894 -0.01192796256007869 4.861539050575872e-05 -0.02670430916808052 -0.005472682296744408 -5.364130565027921e-05 -0.02406120768296204 -0.005701340411844743 -2.285615082866555e-05 -0.02625602593163337 -0.01156919447819138 -0.0001485702699713687 -0.02456598651816378 -0.01135411275122016 -0.0006101297977197104 -0.02431948251110965 0.02080155387709036 0.0008593870437830856 -0.03357425797223416 0.02095459573269613 5.93103643153977e-05 -0.03611351028466488 0.01351736825628612 0.0005411792782943675 -0.03085069287209419 0.006323830120232353 0.0004431137640103574 -0.02816041126451048 0.02019084965931113 -0.000403581913462261 -0.03366230896038934 0.02075525423068712 -0.0003634723759376114 -0.03605197515043872 0.01325756809111314 -0.000222030739668851 -0.03328560489715585 0.01340832443579727 -6.409167534851497e-05 -0.03335188296809938 0.006263371457068368 0.000102686486300148 -0.03065685842379829 0.0005110763386982171 -8.298805086217676e-05 -0.02599110242909054 -0.005326493005284786 -0.0002327349729251848 -0.02381929826373445 -0.02009033471585076 0.001148095848008839 -0.03122012812632536 -0.0004450094017183909 0.0001807530904609936 -0.0322662750614111 -0.006523573289935376 0.0005314299764346241 -0.03030836703723809 -0.01848870053772884 0.000246048437342669 -0.02716852747515651 0.01333823720970254 -0.0007170647175806389 -0.03504342034420065 -0.0001116545723020392 -9.946870669654744e-06 -0.03029576100696851 0.005913684989070465 -9.936933081957336e-05 -0.02827759260481431 0.0061189857559928 -6.992444834750715e-05 -0.03059324671936834 -0.000138266735724279 0.0001206803422422011 -0.02830772279380491 -8.156768937307105e-06 -4.572016341331262e-05 -0.02836421839255951 -0.005831450378631716 0.0001435443548268482 -0.02619953033287878 -0.01579269174786151 -0.001319844483076956 -0.02049493439302714 -0.01063268702230296 -0.0006867428943636178 -0.02227807103799459 -0.01672919920374993 -0.0007816718586847072 -0.02278284987319634 -0.0165141174767787 -0.001243231386433049 -0.0225363458661422 0.01372938947004734 0.0009585827550336959 -0.03063957161548672 0.02039019116132014 1.920082679074815e-05 -0.03372384409461549 0.01339599452727537 0.0003439180527597471 -0.03109509762125793 0.0006324500677089705 0.0001142731746724437 -0.0257466976799268 0.02045020738140064 -0.0007385437959901268 -0.03574774030882456 0.01319665302526637 -7.886468749326205e-05 -0.03103356248703178 0.006058070690146033 7.324160382808179e-05 -0.02834120430924426 0.0003648870472385962 9.610561641272887e-05 -0.02623301184831812 -0.01048649773084333 -0.0008658365616385233 -0.022036161618767 -0.0196006586793497 0.001620006286059674 -0.02859545887064594 -0.01322879339935071 0.001171068111812473 -0.0304371699811633 -0.02023481684761595 0.001590300936549778 -0.03088471276317458 -0.01945617654758451 0.001177801197518735 -0.02893087423379672 -0.00641273867506882 0.0007212600633295533 -0.02761427974145447 -0.006634833397210274 0.0007216950004474129 -0.02994658041656757 -0.006301478567793922 0.0005309950393167645 -0.02797606636212499 -0.01286221654544407 0.0007284280861536746 -0.02844028466920098 -0.01793421768428727 0.0007175898605013842 -0.02497239533816535 -0.01206221807240314 0.0005291599379026799 -0.02665512416048043 -0.01862295605005329 0.0007265929847395901 -0.02711934246755642 -0.01779996217196281 0.0002370453131044629 -0.02502158034576544 0.01958631230864194 -0.001228395936424332 -0.03301239816898213 0.02014793870606604 -0.001150950807471162 -0.03542278491312095 0.01277661081227844 -0.0007945098465338085 -0.03263303360006183 0.01295529941577854 -0.0006344377511498865 -0.03296064950145225 0.005940297152492705 -0.0002299965437314292 -0.03026563081797792 0.0002205013461630285 -7.65053182349263e-05 -0.02616940014388818 -0.005714464390605901 0.0003079290386075691 -0.02395874959050849 -0.005952341425562462 0.0003243295269557724 -0.026148301286652 -0.005593573343675154 0.0001271438664786449 -0.02400997863673527 -0.01169008552512213 3.221490215755543e-05 -0.02451475747193701 -0.01618700716249556 -0.0003272210692000875 -0.02103446300073434 -0.01082984472961998 -0.0001904311874251833 -0.02254783534184819 -0.01692635691106695 -0.0002853601517462728 -0.02305261417704993 -0.01598984945517853 -0.0008235327761385219 -0.02076469869688074 0.01976256507191099 0.001360491077956368 -0.02875627160927459 0.02017604886762007 0.0009012373225000628 -0.03127082541905812 0.02038807008138128 0.001318640799239391 -0.03105970416245064 0.01310388446057705 0.001000433033750673 -0.02833613906231067 0.01933424735736808 0.0004439782878447028 -0.02922788278447841 0.01996189001034861 0.00044298092744423 -0.03150663100666003 0.01276835187429484 0.0003449154131602198 -0.02881634939907631 0.01288972560330559 0.0005421766386948403 -0.02857194464991258 0.005972097109531109 0.0006510735448584334 -0.02347648931459901 0.006087276750376354 0.0004484630416670851 -0.02594065266413661 0.006208650479387107 0.0006457242672017055 -0.02569624791497288 0.0003958966978529722 0.0001196224523291715 -0.02352693907955293 0.01988858098397654 -0.0008159889249432965 -0.03333735356468574 0.0130522673241908 -0.0002514756221409172 -0.03096995078260183 0.005738451665725499 0.0002202438689820393 -0.02401456376273583 0.005970454028473549 0.0002330482037288881 -0.02620968988820502 0.0001328846844905461 8.330128166588003e-05 -0.02403788572284894 0.0002790739759501669 -9.579238560902561e-05 -0.02379597630362135 -0.004714631497392041 -0.0004949640570395077 -0.01941668851439612 -0.005093656897068224 -0.0002743026813448934 -0.02173894809867908 -0.004947467605608603 -0.0004533963486197991 -0.02149703867945148 -0.01025366162262677 -0.000907404270058232 -0.01995581145371163 -0.01300669867720926 0.001170633174694614 -0.0281048693060502 -0.0002229146795769367 0.000180318153343134 -0.02993397438629799 -0.01217347817967804 0.0007194249619154687 -0.02629333753980991 -0.01182434103744658 0.0005127594495544765 -0.02446557246433692 0.0127499986488562 -0.0006638826336219526 -0.03064499538689822 0.005572662789079428 -0.0004473399734265236 -0.02758687884569345 0.005769786052497186 -0.0004039818650349044 -0.02992027393841749 0.005743173889074946 -0.0002733546521230485 -0.02793223572525388 -0.0003087778357197977 -5.330497906127403e-05 -0.02796236591424448 9.961029923228259e-05 0.0001042798538939978 -0.0261181710976614 -0.01095073577655073 -9.646015296259196e-06 -0.02249660629562142 -0.004975528424463393 -0.000109582884581984 -0.01994071532532654 -0.005224105360603901 -8.161209511613161e-05 -0.02200096150414429 -0.01058126779347947 -0.0002184019768910357 -0.02048758916303044 -0.01038411008616245 -0.0007147136838294702 -0.02021782485917684 0.01954840621463954 0.0009022346829005355 -0.0289920771968765 0.01976254850833961 2.019818719122086e-05 -0.03144509587243387 0.01265317223344959 0.0005475259163515681 -0.02635218604953871 0.005855274387628304 0.0004356587069202363 -0.02374552653866742 0.01894407375883839 -0.0004791884875259146 -0.02910809648169585 0.01956746170907476 -0.0004413852004940878 -0.03138520272104259 0.01242887937395443 -0.0002892789091727439 -0.02869284454325508 0.01257326507502999 -0.0001166679745250888 -0.02875645624768503 0.005826068327397982 6.043726908123293e-05 -0.02614607818377507 0.0005119100841667291 -0.0001373600940287342 -0.02171562613856597 -0.004845079960927717 -0.0003022734708107459 -0.01967870191986133 -0.01876743818181848 0.001168798073280529 -0.02678392710440564 -0.0004200379429946956 0.0001369600449515148 -0.02760057929357396 -0.006063601532837359 0.0005145945509685612 -0.02578651466598148 -0.01706061242339141 0.0001951843956506484 -0.02300342916944984 0.01257948754886068 -0.0008378679549254277 -0.03029963850733779 -7.090080076323658e-05 -6.970546740947724e-05 -0.02577281421810097 0.005465903559253332 -0.0001534941144413421 -0.0238930626130077 0.005689794274161898 -0.0001264317226304577 -0.026085327608911 -0.0001242804156762838 7.72174620831135e-05 -0.02392590610175809 -3.38936874553792e-06 -0.0001035677100458107 -0.02397713514798487 -0.005344996407534646 9.917307701279255e-05 -0.02194973245791752 -0.01423473778153457 -0.001458154698720945 -0.01671235239649959 -0.009605133102998979 -0.0007838687916514646 -0.01832653386091307 -0.01521087247201506 -0.0008926878839605162 -0.01887340769861696 -0.01501371476469803 -0.001388999590898951 -0.01860364339476336 0.01286733109072105 0.001005782311407401 -0.0261163804619368 0.01913916055810323 -1.760509984060593e-05 -0.02916798963308713 0.01253634951154679 0.000332111078413371 -0.02662122327360712 0.0006287328060695344 7.805474390946287e-05 -0.02144658891449756 0.01926519303374016 -0.0008537922119751234 -0.03106024732533899 0.01234126271228194 -0.0001294723092719377 -0.02656133012221584 0.005602177612489416 3.337487727034858e-05 -0.02395381318787176 0.0003814616206310535 5.533049220002763e-05 -0.02197763954403118 -0.009474684639463302 -0.0009765593778802263 -0.01806452045544785 -0.01821059695876743 0.001680807557245665 -0.02427144209114994 -0.01231166781691813 0.001201033810287609 -0.02594286091630221 -0.01890562781905857 0.00165040692165267 -0.02643345048089794 -0.01807240732152735 0.001199198708873525 -0.02462191871465765 -0.005924376790925607 0.000723994390232587 -0.02320234441076081 -0.006168557732997213 0.0007226272267810702 -0.02540831207610764 -0.005819420590765754 0.000515961714420078 -0.02358054700063465 -0.01192929723760644 0.0007207921253669855 -0.02408736987446308 -0.01643391211419572 0.0007016171212321482 -0.02095172561377635 -0.01107418825240081 0.0005047730799198586 -0.02245523760214242 -0.01718406489924149 0.0007096034908667661 -0.02296206047597085 -0.01631045963834564 0.0001871980260160304 -0.02099309430725534 0.01835079795014159 -0.001378233216751343 -0.02841943719586705 0.01896855512939176 -0.001303314576587838 -0.03071591768242459 0.01196173036961051 -0.0009127865950889335 -0.02800315802078025 0.01213224146960603 -0.0007388012737854584 -0.02834851490034068 0.005519283174166379 -0.0003004170439339329 -0.02573997072935057 0.0002451875673949696 -0.000131538499511663 -0.02191688896916712 -0.005195584308898772 0.0002794082764030419 -0.01985027003230374 -0.005455024349752336 0.0002936686575053055 -0.02190450981140611 -0.005085556366681083 8.491269591052893e-05 -0.01989549267881514 -0.01069129573569717 -2.390639639852281e-05 -0.02044236651651904 -0.01458571964600377 -0.0004006844153778726 -0.01729190278071667 -0.009780624035233582 -0.0002551336499799283 -0.01861630905302161 -0.01538636340424967 -0.00036395274228898 -0.0191631828907255 -0.01441022871376917 -0.0009294195570494089 -0.01700212758860813 0.01838783871407076 0.001448120026986727 -0.02440130045609459 0.01886104303571942 0.0009460491574157148 -0.0268145916202865 0.01907520189299088 0.001404305552471547 -0.02657878603268458 0.01217996791180094 0.00104959678592258 -0.0239388948853468 0.01795477825618165 0.0004498357470722223 -0.02491910162500149 0.01864451280677486 0.0004469070174584625 -0.02707349220473994 0.01184661496095358 0.0003350398080271307 -0.02446683269386866 0.01196343768285638 0.0005504546459653278 -0.02419779546980025 0.00545663735598877 0.0006655097412298183 -0.01931307083085597 0.005597544510857134 0.0004428768051059287 -0.0216638172967959 0.00571436723275994 0.0006582916430441258 -0.02139478007272749 0.0003710029292983649 8.527284209515533e-05 -0.01936487967262604 0.01864743585448999 -0.000928710852138629 -0.02876376683878145 0.01220498865904586 -0.0003163413009836284 -0.02650057954735177 0.005233288019777106 0.0001989484883452392 -0.01989431757585761 0.005485869842751302 0.0002095961786636392 -0.02195444066929672 0.0001288797976568569 4.468280188162759e-05 -0.01991751645059207 0.0002593282611925325 -0.0001480077843471343 -0.01965550304512686 -0.004216216584337868 -0.000570265035868967 -0.01555783116635705 -0.00459587250440063 -0.0003399239602254755 -0.01774927324584179 -0.004465424040864955 -0.0005326145464542374 -0.01748725984037659 -0.009225477182936218 -0.001014209867294956 -0.01613509178142832 -0.01206748687484652 0.001202400973739126 -0.02373689325095538 -0.000175857000923089 0.0001383272084030316 -0.02539461162822713 -0.01117914445256066 0.0007128057557323676 -0.02207703501226858 -0.01081474821154724 0.000490512698817595 -0.02040099782304004 0.01190835075469746 -0.0007658636655963428 -0.02615624990443737 0.005146589489409488 -0.0005288106234302579 -0.02317207181387096 0.005359626139244457 -0.0004880752984283908 -0.02537947532978221 0.00530624652433141 -0.0003411523689358 -0.02353256721343933 -0.000283937450598206 -0.0001104407924113445 -0.02356541070218972 0.0001351596251772803 6.295708098084986e-05 -0.02187166632265571 -0.009890651977451273 -6.063806948741534e-05 -0.0185710864065102 -0.004437919617959851 -0.0001581505179787677 -0.01611250898956995 -0.004706724021211622 -0.0001338667012803758 -0.01802661215744825 -0.009511819631981812 -0.0002794174666783201 -0.01670220588514331 -0.009336328699747209 -0.0008081526083498564 -0.01641243069303477 0.01817130848512621 0.0009489778870294745 -0.02466020104054804 0.01844942600751002 -1.467637022684618e-05 -0.02701359905334867 0.01170570780608521 0.0005576727441510203 -0.02211608622792873 0.005344962687882938 0.0004322291147875287 -0.01960369420335679 0.01757660871552749 -0.0005485007845284319 -0.02480238232596667 0.01826034123718294 -0.0005138446360271732 -0.02695523940383126 0.01152125613739041 -0.0003509974494848869 -0.02434772246948718 0.01165753019062649 -0.0001641284577731963 -0.02440847304435125 0.005349595789515219 2.272718695194852e-05 -0.02189369009443265 0.000508535717719619 -0.0001856582737618639 -0.01772607437110733 -0.00432706810114886 -0.0003642077769238673 -0.0158351700779635 -0.01732225453648158 0.001191212339238907 -0.02261158385246314 -0.0003888936507580589 9.759188340116446e-05 -0.02318720811231589 -0.00555998054991219 0.0005017013333178143 -0.02152630722153227 -0.01550981588009975 0.0001504663529271379 -0.01912181419724651 0.01174869371977554 -0.0009535219200908006 -0.025795754504869 -2.449740974464236e-05 -0.000124701173513608 -0.02151117092308735 0.004980696888086865 -0.000201503376464046 -0.01977885850984043 0.005223300223670098 -0.000177498745452694 -0.02183596056142406 -0.0001074437104059533 3.895244996949793e-05 -0.01981456427107208 2.584231811735959e-06 -0.000155543130523015 -0.01985978691758349 -0.004816751963429311 6.06288792121371e-05 -0.01798138951093684 -0.0125603476242582 -0.001573627671738309 -0.01325521969369766 -0.008499133621109026 -0.0008658890948585381 -0.01468386434163381 -0.01357303363513099 -0.0009871560435580904 -0.01527356123720717 -0.01339754270289638 -0.001515891185229627 -0.01498378604509862 0.01192223803502977 0.001056814884108273 -0.02185718564347528 0.01776569348585457 -4.933251872810479e-05 -0.02486074197548408 0.01159403313797938 0.0003243921177087307 -0.02240670960042954 0.0006202103858254514 4.76223526804257e-05 -0.01743545099860651 0.01796370333283454 -0.0009633670006398877 -0.02661090976091686 0.0114049483676523 -0.0001747761480915964 -0.02234834995091214 0.005106992453931985 -1.277444059403419e-06 -0.01983658804284902 0.000397684200908628 2.039898518323575e-05 -0.01800341328271378 -0.008388282104298032 -0.001071946353803638 -0.01440652543002735 -0.01669795210908016 0.001741458474713969 -0.02022783865060443 -0.01131116445000288 0.001232726432473278 -0.02171509153068262 -0.01745427453392379 0.001711133015979817 -0.02224964037087718 -0.01656593211163794 0.001221537797973059 -0.02058978213219039 -0.005391277756387167 0.0007303293194796216 -0.0190689175494988 -0.005657827273656386 0.0007271618548561043 -0.02113563098012981 -0.005293431032642969 0.0005048687979413317 -0.01945959379090127 -0.01091259493529144 0.0007159732203558848 -0.02001032158163757 -0.01480922267863624 0.0006868048494485166 -0.0172274752990566 -0.0100024034937675 0.0004831065629257792 -0.01853887266568017 -0.01562156739641598 0.0006942109853403323 -0.01908960045641647 -0.01469747116232 0.000143060217035322 -0.01725968903988664 0.01700131410567153 -0.00152019800031742 -0.02407916689023156 0.01767605602790655 -0.001449215608534382 -0.02624930204304931 0.01107395179754051 -0.001024504311873839 -0.02362561935205126 0.01123360883246243 -0.000836846057379381 -0.02398611475161963 0.005063643188748176 -0.0003651569999471519 -0.02147546516185569 0.000271388635063507 -0.0001798269472214068 -0.01794568374970519 -0.004633002083263653 0.0002554340449023584 -0.01603568898268875 -0.004914293196081212 0.0002674211606527001 -0.01794297950749624 -0.004535460850611752 4.864176346179534e-05 -0.01607409898612935 -0.009609360864633713 -7.262518523775709e-05 -0.01666379588170271 -0.0128600430863928 -0.0004596348114423913 -0.01386501083131101 -0.008648981352176325 -0.0003088926647105794 -0.01498875991044048 -0.01372288136619829 -0.0004301596134101319 -0.01557845680601384 -0.0127101953553255 -0.00101663124159035 -0.01356011526250434 0.01688729604851777 0.00153842935402561 -0.02032440171666497 0.01742103715234971 0.0009941325505489164 -0.02262175167083323 0.01763756738129427 0.001493274690506168 -0.02236285108637978 0.01117196670225327 0.001101969547627714 -0.01981873627376047 0.01644800533494184 0.0004591543933107158 -0.02088296189607685 0.01720139179556174 0.000454495070191469 -0.02290103176053917 0.01084064667735947 0.0003290514408279775 -0.02038863973596723 0.0109523213454653 0.0005623320672702671 -0.02009801636346641 0.004898786018213641 0.0006828081571492768 -0.01545325878364624 0.005066037018995374 0.0004408783227472579 -0.01767378817975192 0.005177711687101206 0.0006741589491895475 -0.01738316480725111 0.000341284716937887 5.627156064015495e-05 -0.01550554497500164 0.01728896141059951 -0.001034349392422926 -0.02444077460809912 0.01127865280180718 -0.0003750020804962389 -0.02229062041790355 0.004686640306010968 0.0001820115259695539 -0.01606802343670382 0.004959964162894037 0.0001904800071573965 -0.01798117050628071 0.0001243603440255589 1.193050399539311e-05 -0.01609026621313689 0.00023521186083655 -0.0001941267549497066 -0.01581292730153044 -0.003685903977037347 -0.0006349413191219898 -0.01202894030155146 -0.004061911797498599 -0.0003965459185503787 -0.0140707246455607 -0.003951060280687608 -0.0006026031774954783 -0.01379338573395425 -0.008123125800647772 -0.001104284495430149 -0.01264207999762456 -0.01104461493273366 0.001235893897096795 -0.01964837810005161 -0.0001223441334888393 0.0001007593480246818 -0.02112049468168488 -0.0101002502175117 0.0007085670844640691 -0.0181481964242777 -0.009721112380949944 0.0004711194471754374 -0.01663158214087267 0.0109910054968792 -0.0008608506883907329 -0.021929012700036 0.004689126289555789 -0.0006031438612201504 -0.01903526787033508 0.004917857889482638 -0.0005659772423252042 -0.02110366984210302 0.004834911588821328 -0.0004023236188420982 -0.01940706319008776 -0.0002532290096714913 -0.0001618677924085543 -0.01944276895131941 0.0001738474024116066 2.696533421915616e-05 -0.01790727374626459 -0.008746522584828225 -0.0001021003832700164 -0.01495034990699988 -0.003859594610737314 -0.0001970688139747792 -0.01259974567332504 -0.004148757114348582 -0.0001776096659767734 -0.01435612733144749 -0.008359818848565055 -0.0003283518127085852 -0.01323237825231802 -0.008209971117497756 -0.0008853482428565439 -0.01292748268351135 0.0166676506917298 0.0009987918736681632 -0.02060368180637091 0.01701230702523467 -4.467319560885803e-05 -0.02284267211102176 0.01067339567657774 0.0005709812752299963 -0.01816811033986154 0.004792713162112305 0.0004324098415594153 -0.01576064111017503 0.01608569870257046 -0.0006093861687099515 -0.02076882777399736 0.01683115370904897 -0.0005789434766191915 -0.02278560504998201 0.01053319779532866 -0.0004054447725869987 -0.02027384314191889 0.01065949336117378 -0.0002052188401823562 -0.02033157267492748 0.004833668597048917 -9.745925247246071e-06 -0.01792344097327212 0.0005003681644868102 -0.000226464896576218 -0.01404848186912764 -0.00377274929388733 -0.0004160050665483845 -0.01231434298743825 -0.0157535873938582 0.001214131662081243 -0.01872765697483051 -0.0003510757334156886 6.359272912973555e-05 -0.01905209270991694 -0.005012139919825409 0.00049288168219099 -0.01755230326609377 -0.01383463288251452 0.0001135850190030627 -0.01554624306518381 0.01084522019761366 -0.001061670930768785 -0.02155721738028332 2.806210314606821e-05 -0.000173854908158896 -0.01753547842651192 0.004457992608918194 -0.0002417686479730212 -0.01595890083888287 0.004719344748502529 -0.0002216360122185336 -0.01786887967436165 -8.750473717272908e-05 6.832698464668568e-06 -0.01599729491078581 1.003649547917131e-05 -0.0001999595829758945 -0.01603570491422641 -0.004246298347000483 2.91826154637896e-05 -0.01431771732800689 -0.01076810509288905 -0.00165399732658344 -0.01014778167223735 -0.007313849851813182 -0.0009255330702791094 -0.01137376367278119 -0.01181407408964092 -0.001056816069012915 -0.01200639625177418 -0.01166422635857363 -0.001613812499160874 -0.0117015006829675 0.01089304103336571 0.001110618755587444 -0.01788883025015561 0.01626685201875615 -7.511588769961783e-05 -0.02082589483503711 0.0105673228204764 0.0003205829596401349 -0.01847549266639033 0.0006064410205881472 2.393341901364357e-05 -0.01374109954259885 0.01654350640412099 -0.001064792084513686 -0.02242399733211447 0.01038616950429071 -0.0002136873213701988 -0.01841842560535059 0.004572316457464581 -2.987856100173368e-05 -0.01601346213779335 0.0004135228476368274 -7.528644002612644e-06 -0.01433388455501443 -0.007227004534963198 -0.001144469322852715 -0.0110883609868944 -0.01506246648144632 0.001798896157727758 -0.01649151596380613 -0.01022687211891674 0.00126461273860369 -0.01778021675665246 -0.01588020929526324 0.001770177316220864 -0.01835967730720528 -0.01493584458004128 0.001242850503588138 -0.01685949563143137 -0.00481305159794149 0.0007395927874010416 -0.01524078905753332 -0.005102164677164329 0.0007349610534403316 -0.01715485330351606 -0.004723026840602572 0.0004975134161517 -0.01563823902011103 -0.009811137138288864 0.000713198818424779 -0.01623413217829496 -0.01305899145378325 0.000671046632389552 -0.01382185416330925 -0.008845996768523448 0.0004632403386459551 -0.014928771572999 -0.01393410706620974 0.0006789257409190342 -0.01552466473118293 -0.01295951727008802 0.0001057059104735803 -0.01384343249731013 0.01553630596426851 -0.001650368820766035 -0.02001737959685932 0.01626881003497002 -0.001585283410541727 -0.02204827324354544 0.01011271612691215 -0.001126756340993093 -0.0195263237335972 0.01025850142617769 -0.0009259360986150405 -0.01989811905334988 0.004573559449236991 -0.0004224562545965858 -0.01749708435460897 0.0002991989990904398 -0.0002194187309739002 -0.01427932325610395 -0.004026683917115427 0.0002357029363119634 -0.01253816319858058 -0.004329843000189539 0.0002455684906071609 -0.01428692609063466 -0.00394313926392637 1.93170611685921e-05 -0.01256895443595281 -0.008443363501754113 -0.0001119659375652139 -0.0132015870149458 -0.01100864385768678 -0.0004980777622026439 -0.01077364679990385 -0.007434119234212049 -0.0003475732880887115 -0.01168669623661444 -0.01193434347203979 -0.0004788562868225175 -0.01231932881560743 -0.01088837447528792 -0.001076037544393042 -0.0104607142360706 0.01525895061598706 0.001628881071884242 -0.01655296115308588 0.01585347797546445 0.001044017732597479 -0.01871796152458137 0.01607312333225241 0.001583655212954926 -0.01843868143487542 0.01007886831710035 0.00115584461451676 -0.01600310996836606 0.01481073442182093 0.0004706743358424665 -0.01714351030747467 0.01562936987838139 0.0004649143645765911 -0.01901323610177576 0.009748687363915948 0.0003263429309060102 -0.01660576687208924 0.009854760220017286 0.0005767412464958716 -0.01629838454556045 0.004298696537961893 0.0007009119530944811 -0.01192643400833683 0.00449266842198643 0.0004414617395320174 -0.01399722872252033 0.004598741278087766 0.0006918600551218789 -0.01368984639599153 0.000306396280462273 3.298531698624571e-05 -0.01197768715494414 0.01581100233341948 -0.001129877494737993 -0.02039310368542834 0.01027184565574433 -0.0004255774083414863 -0.01836386430644011 0.004098506471842941 0.0001689465064215369 -0.0125600594970391 0.004392573388926954 0.0001754790161955454 -0.01431404146687146 0.0001194559305528141 -1.406115377662113e-05 -0.01257990258518207 0.0002063012474027971 -0.0002329974063502264 -0.01229449989929528 -0.003125118262909771 -0.0006847544340344412 -0.00886026456527968 -0.003492356436823542 -0.0004409116240046101 -0.01073000511930236 -0.003405511119973559 -0.0006598478765782155 -0.01044460243341557 -0.00694661167789941 -0.00116937588030894 -0.009504023118758514 -0.009937759039693902 0.0012692444725644 -0.01586615251066972 -6.196265419285011e-05 6.822446309044552e-05 -0.0171380284639342 -0.008936021525862368 0.0007053197098952968 -0.01453132161042129 -0.008542837685449335 0.0004533747843507576 -0.01318000868094492 0.009997149286593354 -0.0009460687343695282 -0.0179881402178711 0.004200880789699388 -0.000667876624774892 -0.01520381938134831 0.004445003539627589 -0.0006355102429975211 -0.0171195436258417 0.00432943669930879 -0.0004548226363739566 -0.01558136011011559 -0.0002160606467821319 -0.0002062212899362668 -0.01561975418201852 0.0002156543459013839 -3.03285583052893e-06 -0.01424853201873173 -0.007517663887401106 -0.0001311874129453402 -0.01165590499924221 -0.003241147122410202 -0.0002232199946987277 -0.009425908091600045 -0.003550370866573757 -0.0002101444043367534 -0.01101282688246254 -0.007124895490048492 -0.0003606488784506857 -0.01009977744575194 -0.007004626107649626 -0.0009386086606410837 -0.009786844881918697 0.015034842518904 0.001049777703863354 -0.01684823573028027 0.01544821656219569 -6.935591643374248e-05 -0.01895616904073602 0.009554715479891411 0.0005857931444684737 -0.01453497215790575 0.004198601504902417 0.000434929229758009 -0.01224324675268796 0.01446869444996885 -0.0006590115156953017 -0.01703120076492893 0.01527719657626965 -0.0006341988422026265 -0.01890001426946314 0.009463343529443519 -0.0004503900818341614 -0.01649505080190589 0.009577667377989908 -0.0002384999948628739 -0.01654961210081637 0.004278249540380567 -3.641107077574219e-05 -0.01425948016796098 0.0004866941044665851 -0.0002579039638064522 -0.01071016203115939 -0.003183132692659987 -0.0004539872143665844 -0.009143086328439864 -0.01406072896761478 0.001234971395058655 -0.01515668506355769 -0.0003060854041210506 3.585808131307476e-05 -0.01522230421944081 -0.004419867757528458 0.0004876478618565025 -0.01388947612805695 -0.01203381765573501 8.648443509345411e-05 -0.01229775048160655 0.009868593376983949 -0.001159122722770464 -0.01761059948910381 8.70984362919807e-05 -0.0002160868442314642 -0.01387099128996444 0.003897985538223566 -0.0002722150720543996 -0.01245770761382738 0.004177989073570879 -0.0002569918600137104 -0.01420830422635512 -6.434918944592987e-05 -1.825606787121811e-05 -0.01249793540620398 1.919546374312621e-05 -0.0002346419430145894 -0.01252872664357621 -0.003633915519762814 6.241470806617891e-06 -0.01098203564509031 -0.008856395773669867 -0.001679507563989235 -0.007411165171850167 -0.006048771448040034 -0.0009513637793439815 -0.008418536631725107 -0.009932519815678324 -0.00108879266309594 -0.009092405985877006 -0.009812250433279459 -0.001666752445286337 -0.008779473422043759 0.009778823576974476 0.001164896512489362 -0.01423969758071135 0.01463971443589489 -9.416858992641761e-05 -0.0170873555362018 0.009454620446831936 0.0003198104211320017 -0.01485178490225688 0.0005867891375260612 8.07875953002e-06 -0.01039334928680825 0.01500250020711868 -0.001154690168230668 -0.01852429018089412 0.009283600460905895 -0.0002450325046368824 -0.01479563013098401 0.003998246005033254 -5.163428281643137e-05 -0.01250888355543324 0.0004286796747163702 -2.713674413859537e-05 -0.01099298379431957 -0.005990757018289819 -0.001182130999011838 -0.008135714868564924 -0.01330449285013049 0.001847521809678052 -0.01309021355945829 -0.009058772224035987 0.001293557298539547 -0.0141655013084958 -0.0141834796657884 0.001823208983702905 -0.01479086476163221 -0.01318174215195687 0.001259284221033802 -0.01345603386138377 -0.004189596323900904 0.0007499410052414369 -0.01174582386626228 -0.004501323960921197 0.0007447668963212392 -0.0134933064618978 -0.004108140120508166 0.0004928219707767002 -0.01214199353242143 -0.008624293888842074 0.0007104938188154943 -0.01278383901478576 -0.01118265121711875 0.0006501537993754651 -0.0107545802264616 -0.007604667567117089 0.0004429283678437142 -0.01164637171252109 -0.012120821335451 0.0006606002158825085 -0.01228821719488543 -0.01109564753740277 7.603801858641063e-05 -0.01076411351318272 0.01395447652333207 -0.001763103324389554 -0.01626082730526244 0.01474539124380029 -0.001706736072577794 -0.01813910345106088 0.009077678656515728 -0.001215489974582223 -0.01573232334330537 0.00920623456612513 -0.001002435986181288 -0.01610986407207265 0.004049433163961477 -0.0004700458484146458 -0.01383076349758784 0.0003284192079066823 -0.0002477175333765637 -0.01094180785271371 -0.003377798519590867 0.0002189023410728492 -0.009380843100767932 -0.003702241218353147 0.0002273026386924063 -0.01095950314967426 -0.003309472821000534 -2.158826812939242e-06 -0.00940337559618399 -0.007193221188638825 -0.0001395877105648973 -0.01007724495033589 -0.009031179508336202 -0.0005074775024480793 -0.00803296666503178 -0.006136163315373201 -0.0003653487485734034 -0.008729437378315913 -0.01001991168301149 -0.0005027776323253616 -0.009403306732467812 -0.008943787641003034 -0.001093492533218657 -0.007722065918440974 0.01350090385037661 0.001714784593676742 -0.01311556525889347 0.01415581913609877 0.001092729464759604 -0.01512953778318407 0.01437992723318183 0.001671832832780492 -0.01483426320598967 0.00889980019416925 0.001207848273385612 -0.01252099963361515 0.01303988009381577 0.0004816999820099089 -0.01372435472516021 0.01392530725781835 0.0004761871589261877 -0.01543393251631744 0.008569193282829356 0.0003253232442157229 -0.01314220711109965 0.008669288315888833 0.000591305967552195 -0.01282539436674852 0.003656800569678338 0.0007156975771714438 -0.008764561575563283 0.003877653520760639 0.0004423220417964903 -0.01066231053630119 0.003977748553820115 0.0007083047651329624 -0.01034549779195006 0.0002658411533842837 1.547157156850138e-05 -0.008812413070421481 0.01421158548665046 -0.001211057420042428 -0.01664601403509568 0.009183339994096207 -0.0004656132938748506 -0.01474445418937815 0.003469542641215532 0.0001584414964906378 -0.00939558027149901 0.003784024556529236 0.0001636940014560873 -0.01097781988426905 0.0001141977594026654 -3.23892491040449e-05 -0.009410744181549528 0.0001722121891528804 -0.0002631564687719017 -0.009127922418389344 -0.002536122275371254 -0.0007125758274243064 -0.006085513252451226 -0.002888634698890728 -0.000467897911061517 -0.007755710672025636 -0.002830620269140513 -0.0006986651307293737 -0.007472888908865453 -0.00569625902452056 -0.001196041695706771 -0.006748339212150696 -0.008747044587015694 0.001298731407459744 -0.01241801871286028 5.642232899242573e-06 4.103219023327242e-05 -0.01347482162380529 -0.007686123770509829 0.000700047402308451 -0.01125020204636194 -0.007280224868354809 0.0004345280702241571 -0.01006771166361476 0.008926231030777816 -0.001017659198221977 -0.01435926745954491 0.003682566858624579 -0.0007196231252857664 -0.01170691373721813 0.003941723824161984 -0.0006937498750303292 -0.01345536655928322 0.003790276198424073 -0.000495919098670083 -0.01208231067552275 -0.0001720585292454234 -0.0002419600944869015 -0.01212253846789936 0.0002600935093163498 -2.665636549077524e-05 -0.01091927535729765 -0.006204489013963534 -0.0001442875806876151 -0.008706904882899855 -0.002585163916825275 -0.000232218005785507 -0.006615994460524283 -0.002913155519617738 -0.0002277190002421173 -0.008020951276062165 -0.005808171712580737 -0.0003698477541167931 -0.00732448056277803 -0.005720779845247571 -0.0009558627848873712 -0.007013579816187224 0.01327039197209619 0.001098242287843325 -0.01341995999202684 0.01375428727189231 -8.86557668426964e-05 -0.01537777774504457 0.008348340331747054 0.0005986987795906763 -0.01124445815036175 0.003563171605446935 0.0004370695368310408 -0.009080070923531147 0.01272339515102717 -0.0006934297885915325 -0.01361292464088256 0.01359604480049801 -0.000676220652143417 -0.01532206270290574 0.008310690344625365 -0.000482822430322966 -0.01303531612735497 0.008410950811435055 -0.0002622416410849978 -0.01308649206896083 0.003683764089719549 -5.688678778188093e-05 -0.01092664394266319 0.0004667101829221388 -0.0002770671654668343 -0.007740546761975118 -0.002560643096098264 -0.0004723969166049067 -0.006350753856487755 -0.01224357203362462 0.001248837804526758 -0.01192239689295994 -0.000253514732638162 1.515893997783518e-05 -0.0117263688017402 -0.003783697421745885 0.0004844216731571431 -0.0105633334835151 -0.01010691536272748 7.133814846369295e-05 -0.009393773445746689 0.008818521690978322 -0.00124136322483766 -0.01398387052124028 0.000152384169516856 -0.0002503603921064586 -0.01054387841899303 0.003301335581419726 -0.0002900395529266713 -0.009300990012527578 0.003599660559821646 -0.0002811273124905354 -0.01087934881317748 -3.82314690855702e-05 -3.556860592691106e-05 -0.009340916556647753 3.009422950476224e-05 -0.0002566297738126995 -0.009363449052063811 -0.002981481218208071 -6.657832356328922e-06 -0.007998418780646107 -0.006823377393097367 -0.001616930483136245 -0.005058583397153007 -0.00470427065496132 -0.0009245742444608762 -0.005837288928838644 -0.007927278450716783 -0.001062203992792162 -0.006545775031092393 -0.007839886583383616 -0.00164821902356274 -0.006234874284501587 0.008578852210027473 0.001215241085424093 -0.01094006341722838 0.01288163762242147 -0.0001058649032908118 -0.01366863968302139 0.008254711367515651 0.0003200707392502733 -0.01155996749832961 0.0005603391471535421 1.560874873568778e-06 -0.007425037414007254 0.01333893583717962 -0.001228266556490543 -0.0149368759730725 0.00809646889612135 -0.0002674941460504474 -0.01150425245619079 0.003385439111317629 -6.579902821801676e-05 -0.009348285142013295 0.0004421893621951289 -3.688825464743461e-05 -0.008005787366011645 -0.004679749834234311 -0.001164753155280276 -0.005572048324802116 -0.01142479920114477 0.001877460590935032 -0.01005199799721707 -0.007807197762522838 0.001313700798088234 -0.01089891093173967 -0.01236464602563763 0.001862491200306542 -0.01157110577833768 -0.01130372520913176 0.001263807195155249 -0.01040328911183934 -0.003521387755100648 0.0007574614889487884 -0.008613204651604277 -0.003855492039500776 0.0007537012470951127 -0.01017951425893328 -0.003449593137345757 0.0004881819150108188 -0.008997023876186104 -0.0073520194861097 0.0007038076441621267 -0.009683892439032938 -0.009180522810970452 0.0006164790317752057 -0.008039585456281896 -0.006279160665280658 0.0004176906864240274 -0.008710214278524912 -0.0101815870140446 0.0006333164155753353 -0.009397082841371748 -0.009105851159653327 5.450076466356318e-05 -0.008036276060656839 0.01225500560161195 -0.001850019165343566 -0.01283703636877805 0.01310474106247201 -0.00180656124486656 -0.01454893183702024 0.007968786230118263 -0.001284821145314666 -0.01227197505299809 0.008076495569917758 -0.001061117118698983 -0.01264737199130271 0.003491951220022152 -0.0005048313391062189 -0.01050395187487285 0.0003580858322972257 -0.0002611287793560892 -0.00795849223652593 -0.002690112789796637 0.0002020252536402072 -0.006587718924564636 -0.003033955654693752 0.0002104637973565282 -0.007984281012666284 -0.002637638353310955 -1.509637607264994e-05 -0.006601856692544459 -0.005860646149066418 -0.000152726124403936 -0.007310342794798207 -0.006929410817764111 -0.000475882968773468 -0.005647269516714386 -0.004757287367294693 -0.0003540504872794875 -0.006131631988619334 -0.007980295163050155 -0.0004916802356107737 -0.006840118090873083 -0.006876394105430739 -0.001046406725954857 -0.005352926456933697 0.01161121528161465 0.001787683367032214 -0.01004146585492586 0.01232554768771521 0.001134691674521062 -0.01188291029004303 0.01255605956599563 0.001751233980354478 -0.01157851555690967 0.007634007925646495 0.001251690472101829 -0.00940301371524457 0.01113295939480514 0.0004871507991109146 -0.0106472753157457 0.01208641974431045 0.0004844253905604117 -0.01218581502045295 0.007301251018010335 0.0003227961478007762 -0.01002142779362235 0.007394879982241739 0.0006014241881411792 -0.00970591844565449 0.002974090851762372 0.0007192638752447597 -0.006003295334483835 0.003221816746488952 0.0004388526858676987 -0.007699437802991422 0.003315445710720355 0.0007174807262081017 -0.007383928455023558 0.0002189842881955592 3.344023910226731e-06 -0.00604440429346753 0.01248920037631956 -0.001271724476967549 -0.01322498050483031 0.008012365366223446 -0.0004917346707591019 -0.01145695732670507 0.002801814495152997 0.0001479621818180293 -0.006601464253795535 0.003135678568184265 0.0001532018391543335 -0.007998522262647273 0.0001083252891638615 -4.212791198373885e-05 -0.006608729357159908 0.0001328461098908714 -0.0002823068228031385 -0.006343488753123381 -0.001922402063495127 -0.0007051671354784132 -0.003744632155040503 -0.002253782990160201 -0.0004686925706319601 -0.005180313307782393 -0.002229262169433191 -0.0007088714814513597 -0.004915072703745865 -0.004372889728296247 -0.001161048809307329 -0.004401607776096755 -0.00747309347812271 0.00131746103994191 -0.009332601324410673 8.058955176196581e-05 1.891918183151095e-05 -0.0101600591944112 -0.00635095528303555 0.000686970260361997 -0.008326395053943086 -0.005935317800383543 0.0004092521427077064 -0.007313652190423265 0.007778170591515837 -0.001070029359135119 -0.01106901319065281 0.003134856709342757 -0.0007534270370139293 -0.008576438044862345 0.003408711783983668 -0.0007365250811498479 -0.01014167589104024 0.003218096145381241 -0.0005217332949703003 -0.008938714028694962 -0.000121470905124055 -0.0002672623479705401 -0.008978640572815139 0.0003056113958115449 -4.400714964323209e-05 -0.007944354468546107 -0.004809761803780374 -0.0001369288575666304 -0.006117494220639511 -0.001898852724772375 -0.0002180433992867892 -0.00419999458955172 -0.002242008320798825 -0.0002251307025361481 -0.005407994525038001 -0.004414131771268243 -0.0003469631840301286 -0.004923632053133052 -0.00436111505893487 -0.0009174869412115173 -0.004629288993352364 0.0113720873382099 0.001137417083071564 -0.01034437058533578 0.01192817727291615 -0.000103139494740309 -0.01213009997831413 0.007053525123283756 0.0006032073371778371 -0.008325285325114767 0.002887952673457685 0.0004336130285313945 -0.006302379794139685 0.01084881777515298 -0.0007068960440908854 -0.01053593896572069 0.01178610646309007 -0.0007001629163412089 -0.01207443180330162 0.007075076678286353 -0.0004984677985087782 -0.009918464489124132 0.007159180208184256 -0.0002742272738001238 -0.009965759618609848 0.003051575038286361 -7.103868555432103e-05 -0.007951227133161556 0.0004397062158289349 -0.0002786024768301919 -0.005173048204418019 -0.001910627394133751 -0.0004616052673826012 -0.003972313372296112 -0.01030266100605761 0.001246969811355119 -0.009045791726749483 -0.0001932655228789454 2.017225967429492e-06 -0.008594821348233309 -0.003105750272448642 0.0004797433712944978 -0.007600461788084456 -0.008054966814367282 7.029803150086886e-05 -0.00684342748649814 0.007694931155477352 -0.001301723101178748 -0.0107067372068202 0.0002223719597730599 -0.000275700891686861 -0.007582078484713491 0.002669631737755467 -0.0002912724377573431 -0.006517026634224063 0.002985483659587596 -0.0002906559953420072 -0.00790900832337582 -1.024052602058441e-05 -4.462359205856795e-05 -0.006552372779394348 4.223391046509636e-05 -0.0002617452217714251 -0.006566510547374173 -0.002294482757284506 -8.009072823291028e-06 -0.005393856757058177 -0.004667437453586972 -0.001407539983306941 -0.00308485761337172 -0.003283145089179674 -0.0008127916912968653 -0.00364242610146172 -0.005798424135675541 -0.0009417114760402047 -0.004366063565043053 -0.005745407423342169 -0.001512235233221593 -0.004071720505262363 0.007292653066688512 0.001253473621138487 -0.008022380594704847 0.01099088858497906 -0.0001098726224899854 -0.01059160714073319 0.006967386944979068 0.0003175564904644719 -0.008624369784770616 0.0005258443941336227 7.048369883173302e-06 -0.004873963744762169 0.01155191168838247 -0.001278457604717226 -0.01168648766724937 0.006825316135152988 -0.0002794669311364281 -0.008568701609758112 0.002735723116454232 -7.16551279696569e-05 -0.006559245444009799 0.0004514808851903113 -3.504060873437996e-05 -0.005400729421673627 -0.003294919758541049 -0.001056353559392677 -0.003414744884206112 -0.00942380272671947 0.001871394971833487 -0.007403226056509775 -0.006472595240910058 0.001314428230391138 -0.008008215354057026 -0.01042430096393212 0.00187442778138426 -0.008727612026863424 -0.009302162768844961 0.001243937001804346 -0.007721405756395835 -0.002810299524563129 0.0007544821887317708 -0.005874129013953228 -0.003165843639831889 0.0007559718388402796 -0.007243666832778752 -0.002750206157179883 0.000478253721185989 -0.006230923969258932 -0.00599541116776679 0.0006854806102534882 -0.006956857235117561 -0.007054300681013082 0.0005568450241949367 -0.005677640232303551 -0.004872206735404859 0.0003794351389175719 -0.006132679578434093 -0.008117411745991766 0.0005866620279850711 -0.006858612844292723 -0.006991855749388596 4.048102771073432e-05 -0.005662454874508968 0.01043803294498802 -0.001898255965760895 -0.009773468809963911 0.01134651927329998 -0.00187413756555223 -0.01130525258937098 0.006786444827165387 -0.001325841501387412 -0.009174953427413127 0.006869684263203871 -0.001094147759343783 -0.009537229411245744 0.002902244223549112 -0.0005223497373856361 -0.007546732339543203 0.0003853895064915462 -0.0002546579185220662 -0.005358510611887891 -0.001972930938911368 0.0001794807873056558 -0.004186653313483361 -0.002331521864354002 0.0001907530204729315 -0.005387186119023998 -0.001935891831841872 -1.928130599056674e-05 -0.004193323951517541 -0.004451170878337739 -0.0001482010907339061 -0.004916961415098873 -0.004709583451759721 -0.0003878004193055589 -0.003595110858265583 -0.003304218088266048 -0.000302921909296174 -0.003897552723908652 -0.005819497134761916 -0.0004318416940395134 -0.004621190187489984 -0.004688510452673347 -0.0008976702013062501 -0.003339984235818652 0.00958750699597156 0.00183198906444641 -0.007358480908160383 0.01036023319538835 0.001159569931778662 -0.009002878111953041 0.01059936113879311 0.001809836215739312 -0.00869997338154312 0.006280798923866965 0.001275626469845585 -0.006680888121322108 0.009089341185053649 0.0004780761442393023 -0.007928899374864386 0.01011115028992939 0.0004826134716751084 -0.009288087345305042 0.005945577840103322 0.0003130191630286658 -0.00726518181432996 0.006031716018408011 0.000598670009742031 -0.00696609735467411 0.002252994589655241 0.0006964516660389451 -0.003683810168086782 0.002527404542404119 0.0004222069239284872 -0.005142637210941159 0.002613542720708807 0.0007078577706418523 -0.004843552751285308 0.000165296263080057 -4.357734719734026e-06 -0.003714221161563642 0.0106434253600705 -0.00130257600492589 -0.0101547038878423 0.006759224756454223 -0.0004990842409241142 -0.008526482799972375 0.002100473392646646 0.0001333193850167282 -0.004208732612224309 0.002451143943899821 0.0001406407834173787 -0.005405098433009922 0.0001008103339371355 -4.236200713503051e-05 -0.004204363600888014 8.903566457575934e-05 -0.0002859238752308425 -0.003976682383632406 -0.001289238462698452 -0.0006356730501462545 -0.001889768209851073 -0.001594045593735413 -0.0004268582247165218 -0.003044881399701396 -0.00160582026309679 -0.0006704200928123338 -0.002817200182445788 -0.002978337958142712 -0.001021606516726598 -0.002487312911611396 -0.006117051125641299 0.001312938580282629 -0.006638677535231501 0.0001622785923898139 5.275758589206648e-07 -0.007225283529407786 -0.004932300102788106 0.0006556636064633537 -0.005775884623128389 -0.004513615809962224 0.0003681629057502962 -0.004932146772893456 0.006553832341371742 -0.001094764201759119 -0.008145247722093987 0.002558142876463057 -0.0007614852387903286 -0.00584850039831814 0.002846499792902907 -0.0007574561379021289 -0.007212469221590243 0.002613887307109262 -0.0005263788382738359 -0.006182763516271101 -6.598495666678946e-05 -0.0002797299925750607 -0.006218109661441387 0.0003483503994220498 -5.589582522584368e-05 -0.005351839973853712 -0.003341257195335545 -0.0001041598159999515 -0.003890882085874472 -0.00120019892979721 -0.0001735767183474542 -0.002222060633567721 -0.001549525827284792 -0.0001958100588171217 -0.00321102761155972 -0.002954891190778465 -0.0002806885688265065 -0.002908585745916652 -0.002933818191692091 -0.0007905583508271978 -0.00265345912346972 0.009338424090512604 0.001155032604342856 -0.007643690141512385 0.009969079480103313 -0.0001144099499257916 -0.009232419170292539 0.005671167887354445 0.0005872639051391236 -0.005806354771475584 0.002176733991150944 0.0004148855255278366 -0.003946271390155546 0.008846845873059499 -0.0006907642694184847 -0.007817894534771231 0.009847831824106239 -0.0006988301567546849 -0.009176916750245959 0.005758238805407483 -0.0004910183535879138 -0.007167460584497647 0.005824330184106248 -0.0002714010438002277 -0.007209679394283384 0.002385052565201056 -7.897652637030747e-05 -0.005362879623224185 0.0004056174649740969 -0.0002511768325647632 -0.003049250411037691 -0.001244718696247831 -0.0004046248842468544 -0.002055914421709397 -0.008239051703866275 0.001214119998014212 -0.006540433144406662 -0.0001260783240500357 -3.501525029278943e-06 -0.005861314706135684 -0.002391615231737248 0.0004669814880187133 -0.005030391163718295 -0.005881942066386401 8.452230244468894e-05 -0.004636375545284567 0.006498087910725536 -0.001329870602275612 -0.007810984604141025 0.0002926059687758445 -0.0002910022257423364 -0.005017576855900751 0.002006548246222653 -0.000270214909751344 -0.004139536279138891 0.00233808999198906 -0.0002807436737543435 -0.005328281456681476 1.680865365564252e-05 -4.536706122284411e-05 -0.004163094796311126 5.384776072513901e-05 -0.0002441291545190666 -0.004169765434345305 -0.001586564934354289 2.952034479100789e-06 -0.003204356973525541 -0.002389386936723844 -0.0009414856577074705 -0.00144380483136811 -0.001794792933260527 -0.0005575311880274623 -0.001832932732467915 -0.003549485194241782 -0.0006646430385065146 -0.002519457844816847 -0.003528412195155407 -0.001174512820507206 -0.002264331222369915 0.0059202507928134 0.001264220365242677 -0.005521145538123583 0.008968093529056573 -0.0001063440625895912 -0.007873396954817809 0.005594907288850147 0.0003056977646280152 -0.006068815993544347 0.0004818780634783947 3.038930794634537e-05 -0.002786789188968928 0.009642439409023758 -0.00129451011758969 -0.008795681672367571 0.005473659632853073 -0.0002787224422008783 -0.00601331357349777 0.002053510819434649 -6.84477623673079e-05 -0.0041741344456816 0.0004501372314247182 -2.0128666665363e-05 -0.003215396622896015 -0.001839312699711148 -0.0007885793539268624 -0.001666786520609591 -0.007299503642680628 0.001798085909124322 -0.0051618285703783 -0.005054901583621878 0.001276284048928046 -0.005517978792165763 -0.008361653184700049 0.001834740440478905 -0.006282527313444038 -0.007176902161846855 0.001177465466659629 -0.005419734401340925 -0.002062024070935255 0.0007261446644747669 -0.003564179313481628 -0.002436161797749192 0.0007403134266032688 -0.004719154163717428 -0.002017477504923312 0.0004528127258902114 -0.003875416313482495 -0.004558162375974169 0.0006414948443348516 -0.00462090977289259 -0.004807969300552521 0.0004501796597324927 -0.003639645416051906 -0.003390450119731944 0.0003148302235190742 -0.003913149364767633 -0.005931134990782801 0.0005035123419637146 -0.004658642824177728 -0.004758776376156121 3.118962021346692e-05 -0.003617378137158745 0.008505751039027209 -0.001887367479641987 -0.007095054539215935 0.009471891992007611 -0.001892811722701441 -0.008434261674589922 0.005531946957745133 -0.001324426359216158 -0.006471777468767037 0.005587691388391339 -0.001089319958699665 -0.006806040586719998 0.002282345561342855 -0.0005158500742708362 -0.004994018338728515 0.0004031746582127216 -0.0002218958140493991 -0.003180798456353306 -0.001247237003901541 0.0001425843847948916 -0.002218476253573921 -0.001610083971406454 0.0001610325860502737 -0.003202564783528641 -0.001223717966849375 -1.549616677628129e-05 -0.002220268443570821 -0.002978410227830631 -0.0001226080172553336 -0.002906793555919752 -0.00238756966043132 -0.0002279629968069429 -0.001792456322867358 -0.001793884295114265 -0.0002007698575771985 -0.002007258478217539 -0.003548576556095521 -0.0003078817080562509 -0.002693783590566471 -0.002388478298577582 -0.0005847243272572067 -0.001618130577117734 0.00742595375126745 0.001816977407148482 -0.005086415048695853 0.00825764746816055 0.001147526775693892 -0.00650765721178012 0.008506730373619504 0.001824483235797446 -0.006222447978428117 0.004839474170461345 0.001256714536593714 -0.004385112608391317 0.006913383128020069 0.0004397050799758999 -0.005572970818194105 0.008001362156536858 0.0004588906121076011 -0.006750935096529244 0.004506928260333357 0.000286512232496314 -0.004890851715209207 0.004583188858837655 0.0005680783730074225 -0.004628390493140444 0.001499925294160919 0.0006175763243379741 -0.00185635338593149 0.001800199343403782 0.0003754478546773511 -0.003032542999077899 0.00187645994190808 0.0006570139951884595 -0.002770081777009136 0.0001053434157312335 -9.048362904140114e-06 -0.001873060797891281 0.008676298456043355 -0.001289065874530236 -0.007456474536993583 0.005426697059641075 -0.0004804895895849143 -0.005978715406955061 0.001377415742761567 0.0001084946245377175 -0.002258467742249691 0.001738944567704106 0.0001209070047772228 -0.003233600177237 8.860840648217854e-05 -3.254104690486833e-05 -0.002240264187908706 4.408864003155723e-05 -0.0002635892128042685 -0.002074117976050382 -0.0006445365160204929 -0.0004455240854041207 -0.0005982257931555361 -0.0009223677229088512 -0.0003095504018757874 -0.001410143213361628 -0.0009668874893594725 -0.0005405985677751875 -0.001243997001503305 -0.001516961726372168 -0.0006935048715557956 -0.001021015312261823 -0.004680763856807942 0.001262115286799544 -0.004363003941929964 0.0002480594027639011 -1.767028715778086e-05 -0.004706339855899884 -0.003434996685743888 0.0005881621621036298 -0.003601912364766767 -0.00302760315222703 0.0002963820222636921 -0.002929060834812913 0.005256149642624931 -0.001078791194696665 -0.005617295409177413 0.001952352814208405 -0.0007304580897676307 -0.003566069122441154 0.002255247845335731 -0.0007459716642789797 -0.004707284760379647 0.001979450530215529 -0.0005003364997594874 -0.003852802700790022 -1.028906235148121e-05 -0.0002754886512309875 -0.003876361217962257 0.0003796556211605563 -6.381526247822619e-05 -0.003179006266356406 -0.00181740333216643 -4.268930600602561e-05 -0.00200546628822064 -0.0005325921528728232 -9.50539107776365e-05 -0.000763568704828476 -0.0008663955413350164 -0.0001343153145625453 -0.001492814669198098 -0.001460080906652071 -0.0001615084537922896 -0.001278012513847917 -0.001460989544798333 -0.0005182697842425535 -0.001103686768098293 0.007169668439643759 0.001128341243562191 -0.00532969293344498 0.007880114500539784 -0.0001255295947212924 -0.006695432676482669 0.004206654211090494 0.0005286407021569369 -0.003714662102062798 0.001438670518461243 0.0003630354744378458 -0.002057410564090591 0.006725623205536487 -0.0006318607326315301 -0.005465424872990465 0.007786234539297992 -0.0006613125010250073 -0.006641659703880847 0.00436608572587957 -0.000451037821191437 -0.004802480576064678 0.004413048299091567 -0.000249270673807401 -0.004837078742607387 0.00169198199449211 -8.086014260681323e-05 -0.00319900201069429 0.0003664396133705368 -0.0001685147304332016 -0.001428346767702613 -0.0005885643344466581 -0.0002702889980908786 -0.000680897248992006 -0.006053736471616574 0.001124132784428407 -0.004400736993215103 -5.483562836342481e-05 -2.156712646431949e-06 -0.003565124217961391 -0.001654630537418398 0.0004343645246348293 -0.002891327783527775 -0.00359776948049192 0.0001111083314627749 -0.002716050869459632 0.005229051926617807 -0.001308912784704809 -0.005330561830828544 0.0003525579051534324 -0.0002939368524863695 -0.002892272688007538 0.001320807410077657 -0.0002191328794228618 -0.002213088694974178 0.001663677828150154 -0.0002446738945871029 -0.003176312487056535 3.67852030880581e-05 -3.827424731398508e-05 -0.00221578247427405 6.030424014022342e-05 -0.000196354798885158 -0.002217574664270949 -0.0008899145783871818 2.376523700862757e-05 -0.001491022479201199 0 0 0 -0.0002662960764364116 -4.752695538881825e-05 -0.000381784352414238 -0.00119378483021566 -0.0001139814984034714 -0.000896228161433679 -0.001194693468361922 -0.0004707428288537352 -0.0007219024156840551 0.004462939522714184 0.001217276865743228 -0.003471384217313671 0.006819503166778278 -9.607782632781511e-05 -0.005519197845592285 0.004145399435390817 0.0002740998522568087 -0.003915719280221898 0.0004276943890702131 8.602611946692673e-05 -0.001227289589543513 0.007615687122281849 -0.001259614106136759 -0.0062802397061032 0.004051519474149026 -0.0002616830540469063 -0.003861946307620078 0.001349111576419612 -5.531912744257213e-05 -0.002235778218611934 0.0004224117949443718 6.720356880040524e-06 -0.001511018223539083 -0.0003222682580102464 -0.0002227620427020604 -0.0002991128965777681 -0.005042738022309355 0.001596409615037359 -0.003315543220751725 -0.003552381046622305 0.001161277139756063 -0.003439861267116677 -0.006171120832494992 0.001697247762080841 -0.004238685895565012 -0.004925353661430938 0.001023294637384926 -0.003477594318401815 -0.001293372615739323 0.0006429537428724114 -0.001731584822274856 -0.001677698343337289 0.0006845492036735892 -0.002647882067878242 -0.001270304809820432 0.0003927690638336515 -0.001975030537924389 -0.003050670958145921 0.0005465667013024519 -0.002685615119163381 -0.002449998344666038 0.0002684936818411865 -0.001829005677256099 -0.001848617674283789 0.000205539033318039 -0.00202374096541501 -0.003628983822609279 0.0003593366707868395 -0.002734325546654003 -0.002418784002548679 2.02653425171218e-05 -0.001810731000061729 0.006464891328792548 -0.001783429523280799 -0.004817963119150872 0.007485321183909878 -0.001835398501461393 -0.005956508829183403 0.004208622071500477 -0.001256943806524215 -0.004192016120796013 0.004235719787507601 -0.001026822216516071 -0.004478749699144881 0.001636580112143031 -0.0004747954845952463 -0.002889578908707666 0.0003941076286024167 -0.0001570933951002491 -0.001488328699901327 -0.0005582724126120895 8.189056106414412e-05 -0.0007621207829666567 -0.0009027547082568149 0.0001122374729295179 -0.001490298518270289 -0.0005454322827424564 -6.581674856746186e-06 -0.0007628447438975663 -0.001472921036521705 -7.303621787139937e-05 -0.001277288552917007 0 0 0 -0.0002662960764364116 -4.752695538881825e-05 -0.000381784352414238 -0.00119378483021566 -0.0001139814984034714 -0.000896228161433679 0 0 0 0.005119044701205211 0.001675032041268527 -0.003217216241670225 0.00601621391461264 0.001057368560622214 -0.004395093529932165 0.00627249922623633 0.001746004724208505 -0.004151815645183039 0.003309484997683065 0.001146304182803251 -0.002536784813800857 0.004622489666238356 0.0003505919807929823 -0.003552916764756229 0.005767936397129212 0.0003951485303844411 -0.004562943791475167 0.002999952704499961 0.0002295433026653499 -0.00290569225350296 0.003061207480199637 0.0004840841525654782 -0.00270463507534386 0.0007325188355186185 0.0004236149130661327 -0.0005892956078564135 0.001054967289140092 0.0002660547688019251 -0.001423881675053052 0.001116222064839769 0.0005205956187020533 -0.001222824496893952 4.399115974906289e-05 -1.095458616899399e-05 -0.0005937607005059748 0.006595257267164518 -0.001207645127956165 -0.005141693996070669 0.004023215307807072 -0.000425496806027196 -0.003839256783982322 0.000658912622782224 6.637157740857891e-05 -0.0008157259872211605 0.001018164182771895 8.743310097314821e-05 -0.001537096864735426 6.316023495470048e-05 -1.434116668452878e-05 -0.0007896473460248183 7.188053380865578e-06 -0.0001895762539977709 -0.0007069758901883483 0 0 0 -0.0002662960764364116 -4.752695538881825e-05 -0.000381784352414238 -0.0003222682580102464 -0.0002227620427020604 -0.0002991128965777681 0 0 0 -0.003168055319024339 0.001119681678954885 -0.002523564021513291 0.0003294900992345415 -4.375217344760972e-05 -0.002648826972358005 -0.00187168548020268 0.0004557237123567989 -0.001780295249765478 -0.001504135378639063 0.0001751921214526653 -0.001295563230111378 0.003892849369435102 -0.00100128120135183 -0.003515525907062525 0.001317549647614018 -0.0006354921845195821 -0.001783120976478154 0.001634951230911212 -0.0006829751371436064 -0.002674595049459654 0.001319178528845837 -0.000427312531971222 -0.001998104835726166 3.515632185623898e-05 -0.0002464538998623453 -0.002000798615026038 0.0003812674987327836 -6.862115917935884e-05 -0.001487604738970417 -0.0002791362063060448 4.094528053207206e-05 -0.0003810603914833284 0 0 0 -0.0002662960764364116 -4.752695538881825e-05 -0.000381784352414238 0 0 0 0 0 0 0.004870767183721783 0.001012812011030755 -0.003385066503213227 0.005674056435887422 -0.0001406343759192739 -0.004509170818873347 0.002677504250878487 0.0003871034469295575 -0.002071106186306322 0.0006957157291504212 0.0002449932452373558 -0.000702510797538787 0.004506204741706099 -0.0005107663816086875 -0.003458378588549488 0.005615913973621293 -0.0005713135571201087 -0.004461901730769977 0.002913506075891878 -0.0003649496305157746 -0.002835733641761833 0.002941810242233833 -0.000201135878535485 -0.002858423165399589 0.0009898600164299403 -7.638065100714145e-05 -0.001514407341097669 0.000329456311391112 3.318578870428945e-05 -0.0004078629936105803 0 0 0 -0.003746368183487696 0.0009324516484392728 -0.002572274449003912 1.208851593734791e-05 3.730779176414599e-06 -0.001757352899376505 -0.0009258225141757061 0.0003624221519682777 -0.001246852802620756 -0.001224999172333019 0.0001342468409205932 -0.0009145028386280495 0.003891220488203283 -0.00120946085390019 -0.003300542047814513 0.0003796386175009644 -0.000276800811727719 -0.001272620879722405 0.0006338668347285219 -0.0001296925284959249 -0.0008018460843896374 0.0009773371224030892 -0.0001744127039593933 -0.001507467389681908 3.779721105821626e-05 -2.390098371589039e-05 -0.000781983433678147 5.06373409278494e-05 -0.0001123732196367807 -0.0007827073946090567 -0.0002791362063060448 4.094528053207206e-05 -0.0003810603914833284 0.002925781768361915 0.00104932347716733 -0.001903255924763319 0.004564347203972228 -8.008720040785259e-05 -0.003505647676652859 0.00264070114451029 0.0002084817791007806 -0.002184321375988695 0.0003662594177593093 0.0002118074565330663 -0.0002946478039282068 0.005485548035249324 -0.001147097952444743 -0.00413817085385018 0.002582558682244161 -0.0002221974021000543 -0.002137052287885324 0.0006463897287553729 -3.1660475543673e-05 -0.0008087860358053989 0.000329456311391112 3.318578870428945e-05 -0.0004078629936105803 -0.002627853101953181 0.001126947707122306 -0.001749817360116553 -0.001960612858846252 0.0008849507249973586 -0.001740701091195705 -0.003835295562131268 0.001361678661079833 -0.002532680290434139 -0.002538925723309609 0.0006977206944817462 -0.001789411518686326 -0.0005546797466585166 0.0004439500994416128 -0.0004660189605888366 -0.0009240261811989197 0.0005434519211570121 -0.001098801891431846 -0.0005564760796353031 0.0002629203302528785 -0.0006140698717777466 -0.001502339045662277 0.0003562218906413996 -0.001147512318922468 0 0 0 -0.0002791362063060448 4.094528053207206e-05 -0.0003810603914833284 -0.001224999172333019 0.0001342468409205932 -0.0009145028386280495 0 0 0 0.004332341603196418 -0.001527093423645936 -0.002935252485515391 0.005398616465994483 -0.001655261473463367 -0.003876607802333131 0.002824945625405218 -0.001081292804082759 -0.002359186730996772 0.002826574506637037 -0.000873113151534399 -0.002574170590244785 0.0009757082411712701 -0.0003825923565077535 -0.001292483530433896 0.000316933417364261 -6.484626424796246e-05 -0.0004009230421948187 0 0 0 -0.0002791362063060448 4.094528053207206e-05 -0.0003810603914833284 0 0 0 0 0 0 0.002651725925496347 0.001235147069286978 -0.001653077854031027 0.003637107795867352 0.0007928695250399803 -0.002602997309393628 0.003885385313350778 0.001455089555277753 -0.002435147047850626 0.001692122380507483 0.0008293809911765554 -0.00112118673094372 0.002268714097862105 0.0001912870443035229 -0.001774223678462503 0.00344560188205023 0.0002709395125482526 -0.002663570221609366 0.001463813360322164 0.0001288293108560509 -0.001294974832841832 0.001500616466690362 0.0003074509786848278 -0.001181759643159458 0 0 0 0.000329456311391112 3.318578870428945e-05 -0.0004078629936105803 0.0003662594177593093 0.0002118074565330663 -0.0002946478039282068 0 0 0 0.004419273172451259 -0.001018929902627312 -0.003196815537032439 0.00257003578821731 -0.0003202294550523062 -0.002130112336469562 0 0 0 0.000329456311391112 3.318578870428945e-05 -0.0004078629936105803 0 0 0 0 0 0 -0.001591266424305848 0.0007854489032819592 -0.001107918160352695 0.0003814349504777509 -9.577104253898468e-05 -0.001124569968533495 -0.0002773398733292583 0.0002219750497208064 -0.0002330094802944183 0 0 0 0.00248310421896247 -0.0008283929760709305 -0.001868549284952514 0.0006581069824482821 -0.0004266882379299523 -0.0005688731577333314 0.0009878283150311501 -0.0005310902112247672 -0.001175997067105743 0.0006459869085884021 -0.0002781903832129386 -0.0006853596210614843 4.991728491809635e-05 -0.0001723988384329041 -0.0006654969703499939 0.000316933417364261 -6.484626424796246e-05 -0.0004009230421948187 0.002460220011679226 0.0007132170567952506 -0.001713650766246765 0.003387459419784102 -0.0001597396686525823 -0.002616301133505995 0.001134357048931052 9.564352215176145e-05 -0.0008871118392312515 0 0 0 0.002234584279604399 -0.0003032007550084683 -0.00171344792422483 0.003370394510655249 -0.0004069835683085778 -0.002585913256387158 0.00143422555716646 -0.0002164466417521966 -0.001257647004307234 0.001446748451193311 -0.0001184145887999447 -0.001264586955722995 0.000316933417364261 -6.484626424796246e-05 -0.0004009230421948187 -0.00131392655097659 0.000563473853561153 -0.0008749086800582767 5.171361789488283e-05 8.630930755830241e-06 -0.000517446059161084 -0.0002773398733292583 0.0002219750497208064 -0.0002330094802944183 0.00249522429282235 -0.0009768908307879443 -0.001752062821624361 0.0003290534912241411 -0.0002133441189649761 -0.0002844365788666657 0 0 0 0.000316933417364261 -6.484626424796246e-05 -0.0004009230421948187 0 0 0 0 0 0 0.001325862962748174 0.0006175735346434892 -0.0008265389270155134 0.002251649188733252 -5.595685535247272e-05 -0.001743835801343667 0.001134357048931052 9.564352215176145e-05 -0.0008871118392312515 0.003283462941400408 -0.0009151470893272024 -0.002324350204870111 0.001117292139802199 -0.0001516003775042342 -0.000856723962112415 0 0 0 0 0 0 -0.0002773398733292583 0.0002219750497208064 -0.0002330094802944183 -0.00131392655097659 0.000563473853561153 -0.0008749086800582767 0 0 0 0 0 0 -0.0002773398733292583 0.0002219750497208064 -0.0002330094802944183 0 0 0 0 0 0 0.002147633627442737 -0.001007483993589734 -0.001386410691884488 0.003239987615319577 -0.001267288708617835 -0.00216083158869994 0.001402870304945509 -0.0007170861157598429 -0.0009776419248089096 0.001390750231085629 -0.0005685882610428294 -0.001094128388137063 0.0003290534912241411 -0.0002133441189649761 -0.0002844365788666657 0 0 0 0.001134357048931052 9.564352215176145e-05 -0.0008871118392312515 0.001325862962748173 0.000617573534643489 -0.0008265389270155133 0 0 0 0 0 0 0.001134357048931052 9.564352215176145e-05 -0.0008871118392312514 0 0 0 0 0 0 0.002191108953523568 -0.000655342374299101 -0.001549929308054659 0.001117292139802199 -0.0001516003775042342 -0.000856723962112415 0 0 0 0.0003290534912241411 -0.0002133441189649761 -0.0002844365788666657 0.001073816813721369 -0.0005037419967948668 -0.000693205345942244 0 0 0 0.0003290534912241411 -0.0002133441189649761 -0.0002844365788666657 0 0 0 0 0 0 0 0 0 0.001117292139802199 -0.0001516003775042342 -0.000856723962112415 0 0 0 0.001117292139802199 -0.0001516003775042341 -0.0008567239621124149 0 0 0 0 0 0 0 0 0 0.001073816813721369 -0.0005037419967948668 -0.000693205345942244 0 0 0 0.001073816813721369 -0.0005037419967948668 -0.000693205345942244 0 0 0 0.001073816813721369 -0.0005037419967948668 -0.000693205345942244 0 0 0 0 0 0 0 0 0 </DataArray>
        <DataArray type="Float64" Name="Stress von Mises" format="ascii">0.1738422673591336 0.1667521300204844 0.1618414241036243 0.04891300032246375 0.1618414241036243 0.1667521300204844 0.1667521300204844 0.06069046819256575 0.1691045351181128 0.1667521300204844 0.05998434727842327 0.05998434727842327 0.1667521300204844 0.07469366874197245 0.1760519780296115 0.05997702549305629 0.1618414241036243 0.1780764667948311 0.05679140881855789 0.05240996814218871 0.05998434727842327 0.1738422673591336 0.04722617809557722 0.04891300032246375 0.1618414241036243 0.06164762100956077 0.05778222550339505 0.04891300032246375 0.1731496221030633 0.1738422673591336 0.03964722638819896 0.04891300032246375 0.05998434727842327 0.04342940721813619 0.0613290015130351 0.1611328558473155 0.1611328558473155 0.1618414241036243 0.1660885435160949 0.04936804092149797 0.1773971566422666 0.07025283152913647 0.1813301979409306 0.1738422673591336 0.0411879409052418 0.0411879409052418 0.05998434727842327 0.05141248304809388 0.03878210889216513 0.07467067249734413 0.1819701601508436 0.0585359208238799 0.1611328558473155 0.1760519780296115 0.04102416305403887 0.04722617809557722 0.04891300032246375 0.04203318212714127 0.0605611335812572 0.04722617809557722 0.06110413075141327 0.1760519780296115 0.1834268604167699 0.06963885016413891 0.1760519780296115 0.1833531243217556 0.0683697953705605 0.04364345085524943 0.0411879409052418 0.05679140881855789 0.03964722638819896 0.06707187276311609 0.03964722638819896 0.05778222550339505 0.05679140881855789 0.05751393702443108 0.06371027774646941 0.05679140881855789 0.1773971566422666 0.05343582979000993 0.04722617809557722 0.1611328558473155 0.07513657298942757 0.1760246447026499 0.04000069650041274 0.07301536659083306 0.06102700143769875 0.05778222550339505 0.1784732277396399 0.1773971566422666 0.1714541862645589 0.03964722638819896 0.0411879409052418 0.1798782290770675 0.06274666375033548 0.042830674420157 0.05375479894557092 0.06379199239359838 0.1936387848533035 0.1936387848533035 0.1611328558473155 0.1936387848533035 0.05343582979000993 0.1813701753761049 0.0622170190842183 0.04102416305403887 0.04722617809557722 0.06334234542888485 0.07104030253271643 0.04102416305403887 0.05578824265282547 0.05778222550339505 0.0618966884918831 0.1770336015918701 0.07364513014116013 0.1868024437813235 0.1773971566422666 0.1855001644614891 0.1855001644614891 0.0411879409052418 0.1855001644614891 0.1714541862645589 0.05393941889195672 0.171182254565882 0.04102416305403887 0.03964722638819896 0.1755043149145053 0.06501899915811897 0.0493390760162098 0.07438056437330073 0.185404760776784 0.07513657298942757 0.1936387848533035 0.1819701601508436 0.05343582979000993 0.05749320796838769 0.05343582979000993 0.0605611335812572 0.1819701601508436 0.1880696035698568 0.0688759321672881 0.1819701601508436 0.1834268604167699 0.0622170190842183 0.05334299274658025 0.06667288536002823 0.0605611335812572 0.06661697810405869 0.1834268604167699 0.1850185028866484 0.07302947621002338 0.1834268604167699 0.183784762980662 0.1793735750519839 0.1798782290770675 0.1855001644614891 0.0683697953705605 0.1714541862645589 0.1759807752669295 0.1714541862645589 0.06707187276311609 0.0683697953705605 0.07865177058753677 0.06692589956544191 0.0683697953705605 0.05751393702443108 0.171182254565882 0.07879210481742864 0.06707187276311609 0.06102700143769875 0.05751393702443108 0.0583412435823793 0.0682440594628551 0.05751393702443108 0.1770336015918701 0.185404760776784 0.06334234542888485 0.07919963886175922 0.1807721618220388 0.1907498826122187 0.0622170190842183 0.04102416305403887 0.1907498826122187 0.06875907808251724 0.0622170190842183 0.06700680916192085 0.0605611335812572 0.0532106935910956 0.07805640343162755 0.06176976842243902 0.06102700143769875 0.1787558761584003 0.1770336015918701 0.1793735750519839 0.1755043149145053 0.1827774770430764 0.07241245200347667 0.171182254565882 0.1796324922702677 0.171182254565882 0.07104030253271643 0.06707187276311609 0.06799041757190484 0.05895751848642065 0.06528130799058064 0.185404760776784 0.05749320796838769 0.05749320796838769 0.1869240408794562 0.1858127698813771 0.05353678447412936 0.08224406449566689 0.07104030253271643 0.05971064548911968 0.06102700143769875 0.06742961586286397 0.1744341977715408 0.07401373279251093 0.1870658477518118 0.1770336015918701 0.1793735750519839 0.1759807752669295 0.1759807752669295 0.05743402025421344 0.1907498826122187 0.1810145715976307 0.07531151845861424 0.05580972848322425 0.07331230207178661 0.185067852090826 0.07919963886175922 0.185404760776784 0.1880696035698568 0.06185305199645599 0.05749320796838769 0.06667288536002823 0.1880696035698568 0.1877377605621266 0.07279519037125112 0.1880696035698568 0.1850185028866484 0.188313258866415 0.1907498826122187 0.06875907808251724 0.07104030253271643 0.06875907808251724 0.0587216332615763 0.06886039304807724 0.06667288536002823 0.06864506475196204 0.1850185028866484 0.1832888909353237 0.073422873787064 0.1850185028866484 0.1815568083904266 0.178945291876661 0.1827774770430764 0.1793735750519839 0.07865177058753677 0.178899181620926 0.1759807752669295 0.07879210481742864 0.07865177058753677 0.0819952090307477 0.07645666475650562 0.07865177058753677 0.0583412435823793 0.1796324922702677 0.1796324922702677 0.08322588333167909 0.07879210481742864 0.06176976842243902 0.0583412435823793 0.05895032117862397 0.06958155736052583 0.0583412435823793 0.1744341977715408 0.185067852090826 0.05353678447412936 0.08032964864419488 0.1801771783108833 0.188313258866415 0.07413116728865654 0.06875907808251724 0.07687065998469067 0.06667288536002823 0.0588072377739347 0.07954483519946191 0.06152646308674688 0.06176976842243902 0.1762502129279115 0.1744341977715408 0.178945291876661 0.1810145715976307 0.1833015330534052 0.07572341176792759 0.1827807967844806 0.1796324922702677 0.08224406449566689 0.07879210481742864 0.07756427833328673 0.06059499726183869 0.06596656817366145 0.185067852090826 0.06185305199645599 0.06185305199645599 0.1870065225753448 0.1814594159136988 0.05090825367701816 0.08566138367445718 0.08224406449566689 0.06077729559978887 0.06176976842243902 0.0693284168333959 0.1706476900740596 0.07301574788035819 0.1844766336001396 0.1744341977715408 0.178945291876661 0.178899181620926 0.178899181620926 0.05861041118639301 0.188313258866415 0.1830854804747138 0.0786141057797809 0.05842761802824852 0.07178908352057729 0.1836755313366951 0.08032964864419488 0.185067852090826 0.1877377605621266 0.0645863145857761 0.06185305199645599 0.06886039304807724 0.1877377605621266 0.1847662757132733 0.07343451696839449 0.1877377605621266 0.1832888909353237 0.1859558011906451 0.188313258866415 0.07413116728865654 0.08224406449566689 0.07413116728865654 0.0602475900769915 0.06936311184578971 0.06886039304807724 0.06900969898857875 0.1832888909353237 0.1797622605492727 0.07245781596616781 0.1832888909353237 0.1778989186687464 0.178065718701913 0.1833015330534052 0.178945291876661 0.0819952090307477 0.1792530460161433 0.178899181620926 0.08322588333167909 0.0819952090307477 0.08292641911711958 0.07935726424776725 0.0819952090307477 0.05895032117862397 0.1827807967844806 0.1827807967844806 0.08436282027571304 0.08322588333167909 0.06152646308674688 0.05895032117862397 0.05937913996590852 0.06952880971247691 0.05895032117862397 0.1706476900740596 0.1836755313366951 0.05090825367701816 0.07990418943030822 0.1771398031363449 0.1859558011906451 0.07639501133392643 0.07413116728865654 0.07976386069708681 0.06886039304807724 0.06013605350360877 0.07925451756846975 0.06094991630406935 0.06152646308674688 0.1723103978899354 0.1706476900740596 0.178065718701913 0.1830854804747138 0.1818908721677975 0.07655968328578684 0.1822086520701095 0.1827807967844806 0.08566138367445718 0.08322588333167909 0.08015929800415365 0.06057326891762998 0.06614136522790136 0.1836755313366951 0.0645863145857761 0.0645863145857761 0.1843945910609183 0.1784216854318755 0.04987816786914087 0.08585574560528203 0.08566138367445718 0.06072085035355086 0.06152646308674688 0.0696172860639053 0.1661842242409721 0.07140484335453415 0.1804042927296937 0.1706476900740596 0.178065718701913 0.1792530460161433 0.1792530460161433 0.05872864107508496 0.1859558011906451 0.1821475763659084 0.07896002144164757 0.059010624122593 0.070026904575281 0.1811877357809123 0.07990418943030822 0.1836755313366951 0.1847662757132733 0.06627058212914977 0.0645863145857761 0.06936311184578971 0.1847662757132733 0.1806153270737836 0.07262427856376374 0.1847662757132733 0.1797622605492727 0.1825977835199573 0.1859558011906451 0.07639501133392643 0.08566138367445718 0.07639501133392643 0.06000105892540913 0.06918525550563437 0.06936311184578971 0.06861134486112641 0.1797622605492727 0.1752353483377206 0.07086589009766146 0.1797622605492727 0.1734065747884018 0.176423796265783 0.1818908721677975 0.178065718701913 0.08292641911711958 0.1776964886029008 0.1792530460161433 0.08436282027571304 0.08292641911711958 0.0828649436864711 0.07947464148081301 0.08292641911711958 0.05937913996590852 0.1822086520701095 0.1822086520701095 0.08394686891704017 0.08436282027571304 0.06094991630406935 0.05937913996590852 0.05966079396523902 0.06889901518731885 0.05937913996590852 0.1661842242409721 0.1811877357809123 0.04987816786914087 0.0788387877204281 0.172986040377029 0.1825977835199573 0.07679740086694983 0.07639501133392643 0.07975018455096293 0.06936311184578971 0.05971210481583177 0.07805958062752333 0.06029971544548981 0.06094991630406935 0.167613861962215 0.1661842242409721 0.176423796265783 0.1821475763659084 0.1792237665383738 0.07639853287678194 0.1795663248756994 0.1822086520701095 0.08585574560528203 0.08436282027571304 0.07992641838228194 0.05984812812556317 0.06598995875838705 0.1811877357809123 0.06627058212914977 0.06627058212914977 0.1804364964429661 0.1748231276038156 0.04914554563174089 0.0846886852994972 0.08585574560528203 0.06031195028635399 0.06094991630406935 0.0692248507046795 0.1612766774198624 0.06950566769597419 0.1755296631232707 0.1661842242409721 0.176423796265783 0.1776964886029008 0.1776964886029008 0.05845964135972371 0.1825977835199573 0.1793934164119863 0.07805932110135283 0.05860666604576441 0.06812126606177299 0.1779142582502257 0.0788387877204281 0.1811877357809123 0.1806153270737836 0.06733229059069 0.06627058212914977 0.06918525550563437 0.1806153270737836 0.1758487592677971 0.07117924767827359 0.1806153270737836 0.1752353483377206 0.1785038074809426 0.1825977835199573 0.07679740086694983 0.08585574560528203 0.07679740086694983 0.05900224950869499 0.06873633204530093 0.06918525550563437 0.06787504414922897 0.1752353483377206 0.1701034811866001 0.06896215291543892 0.1752353483377206 0.1683623850915992 0.173994189190451 0.1792237665383738 0.176423796265783 0.0828649436864711 0.1748244459222041 0.1776964886029008 0.08394686891704017 0.0828649436864711 0.08226558278552228 0.07844977182902516 0.0828649436864711 0.05966079396523902 0.1795663248756994 0.1795663248756994 0.08275503992166568 0.08394686891704017 0.06029971544548981 0.05966079396523902 0.05981644834350056 0.06804072935220484 0.05966079396523902 0.1612766774198624 0.1779142582502257 0.04914554563174089 0.07748013739526645 0.1682743608227033 0.1785038074809426 0.07620955561444188 0.07679740086694983 0.07854173184041642 0.06918525550563437 0.05861890347444872 0.07637296121957218 0.05966786292207445 0.06029971544548981 0.1624758619925022 0.1612766774198624 0.173994189190451 0.1793934164119863 0.175694449656887 0.07576514050438225 0.1757406437930915 0.1795663248756994 0.0846886852994972 0.08394686891704017 0.07857273489631107 0.05885773304818699 0.06562087352827883 0.1779142582502257 0.06733229059069 0.06733229059069 0.1757461352893787 0.1706735911490164 0.04845636733444869 0.08292395835106671 0.0846886852994972 0.05983824575071731 0.06029971544548981 0.06855272654276542 0.1560321992517221 0.06745604178377783 0.1701724628852359 0.1612766774198624 0.173994189190451 0.1748244459222041 0.1748244459222041 0.05805691865573542 0.1785038074809426 0.175542338078111 0.07662438930533379 0.05775113707030217 0.06611276090837946 0.1740357972135975 0.07748013739526645 0.1779142582502257 0.1758487592677971 0.06798881994022096 0.06733229059069 0.06873633204530093 0.1758487592677971 0.1706882672451068 0.06943573556040146 0.1758487592677971 0.1701034811866001 0.1739017410183358 0.1785038074809426 0.07620955561444188 0.0846886852994972 0.07620955561444188 0.05771655250947105 0.06817501325141286 0.06873633204530093 0.06699624393194843 0.1701034811866001 0.164558971578915 0.06688281109847316 0.1701034811866001 0.1629052565146401 0.1708137077429299 0.175694449656887 0.173994189190451 0.08226558278552228 0.1710277771620246 0.1748244459222041 0.08275503992166568 0.08226558278552228 0.08129399862341606 0.07695229054746765 0.08226558278552228 0.05981644834350056 0.1757406437930915 0.1757406437930915 0.08114338762992743 0.08275503992166568 0.05966786292207445 0.05981644834350056 0.05986758792108787 0.06709853691406607 0.05981644834350056 0.1560321992517221 0.1740357972135975 0.04845636733444869 0.07593736600426468 0.1632278455534235 0.1739017410183358 0.07508831228336127 0.07620955561444188 0.0768501332466159 0.06873633204530093 0.05729658930399018 0.07439133073227513 0.05908031641422592 0.05966786292207445 0.157036129523395 0.1560321992517221 0.1708137077429299 0.175542338078111 0.1715208290217609 0.07484546809610779 0.1711725358251953 0.1757406437930915 0.08292395835106671 0.08275503992166568 0.07678079398281989 0.05779670436906283 0.06510410530309486 0.1740357972135975 0.06798881994022096 0.06798881994022096 0.170597709184095 0.1661195738604775 0.04778616270717632 0.08087718343233384 0.08292395835106671 0.05938952724333012 0.05966786292207445 0.06776939755953158 0.1505036011947873 0.06531678140162912 0.1644782257502155 0.1560321992517221 0.1708137077429299 0.1710277771620246 0.1710277771620246 0.05760526855967886 0.1739017410183358 0.1709761801816045 0.07494829255524732 0.05671058052815047 0.06402410020625611 0.1696569125298882 0.07593736600426468 0.1740357972135975 0.1706882672451068 0.06835371465960248 0.06798881994022096 0.06817501325141286 0.1706882672451068 0.1652216097482642 0.0675282724048763 0.1706882672451068 0.164558971578915 0.1689053985489587 0.1739017410183358 0.07508831228336127 0.08292395835106671 0.07508831228336127 0.0563543735228692 0.06756022025777109 0.06817501325141286 0.0660635815751786 0.164558971578915 0.1586945828984928 0.06469018142271857 0.164558971578915 0.1571085456740137 0.1669579922921437 0.1715208290217609 0.1708137077429299 0.08129399862341606 0.1665494503508423 0.1710277771620246 0.08114338762992743 0.08129399862341606 0.08002776005672199 0.07524669957558573 0.08129399862341606 0.05986758792108787 0.1711725358251953 0.1711725358251953 0.07927969649510425 0.08114338762992743 0.05908031641422592 0.05986758792108787 0.05983860876807114 0.0661315850502901 0.05986758792108787 0.1505036011947873 0.1696569125298882 0.04778616270717632 0.07423962539574674 0.1579294219788847 0.1689053985489587 0.07366299251177832 0.07508831228336127 0.07496535463533638 0.06817501325141286 0.05592509753335519 0.0722119096986204 0.05853994259979976 0.05908031641422592 0.1513534438062824 0.1505036011947873 0.1669579922921437 0.1709761801816045 0.1668309721477561 0.07371102498685493 0.1660841002593487 0.1711725358251953 0.08087718343233384 0.08114338762992743 0.07481647349253631 0.05674896937792521 0.06449000085333381 0.1696569125298882 0.06835371465960248 0.06835371465960248 0.165112425034485 0.1612438523116892 0.04715575413519457 0.0786797328503433 0.08087718343233384 0.05898316794039842 0.05908031641422592 0.06694344580340025 0.1447205858107554 0.0631185189113404 0.15851152718693 0.1505036011947873 0.1669579922921437 0.1665494503508423 0.1665494503508423 0.05713236151425641 0.1689053985489587 0.1658969954394841 0.0731486507555215 0.05561649750027898 0.06187467649662669 0.1648440283953573 0.07423962539574674 0.1696569125298882 0.1652216097482642 0.06849472377045651 0.06835371465960248 0.06756022025777109 0.1652216097482642 0.1594827873431002 0.06551076685612524 0.1652216097482642 0.1586945828984928 0.1635684365992383 0.1689053985489587 0.07366299251177832 0.08087718343233384 0.07366299251177832 0.05501144589897861 0.066913418042216 0.06756022025777109 0.06511740079047948 0.1586945828984928 0.1525549689629798 0.06241684617961653 0.1586945828984928 0.1510149175634718 0.1625125310979121 0.1668309721477561 0.1669579922921437 0.08002776005672199 0.1615403245524118 0.1665494503508423 0.07927969649510425 0.08002776005672199 0.07851502015972088 0.07343252459901745 0.08002776005672199 0.05983860876807114 0.1660841002593487 0.1660841002593487 0.07724545607325521 0.07927969649510425 0.05853994259979976 0.05983860876807114 0.05975498912428581 0.06516475208835247 0.05983860876807114 0.1447205858107554 0.1648440283953573 0.04715575413519457 0.07239461479585348 0.1524054602402451 0.1635684365992383 0.07205143311352842 0.07366299251177832 0.07300125754766787 0.06756022025777109 0.05458114012510123 0.06988620810022279 0.05804343687669674 0.05853994259979976 0.145450797002976 0.1447205858107554 0.1625125310979121 0.1658969954394841 0.161705378269843 0.07239629986877763 0.1605918895659711 0.1660841002593487 0.0786797328503433 0.07927969649510425 0.07277862503792799 0.05574991772159674 0.06381749988116184 0.1648440283953573 0.06849472377045651 0.06849472377045651 0.1593430036989103 0.1560841113152805 0.04659099206254313 0.07638698008131641 0.0786797328503433 0.05861410261763508 0.05853994259979976 0.06610194101911877 0.1387030441908568 0.06088096109141298 0.152300321588008 0.1447205858107554 0.1625125310979121 0.1615403245524118 0.1615403245524118 0.05665051309498002 0.1635684365992383 0.1604146847028803 0.07127062315500833 0.05453405082601391 0.05968499149725914 0.1596421756636445 0.07239461479585348 0.1648440283953573 0.1594827873431002 0.06845870774779363 0.06849472377045651 0.066913418042216 0.1594827873431002 0.1534840600971008 0.06340656540385793 0.1594827873431002 0.1525549689629798 0.1579196652058916 0.1635684365992383 0.07205143311352842 0.0786797328503433 0.07205143311352842 0.0537324402317416 0.06624338328137078 0.066913418042216 0.0641768953323734 0.1525549689629798 0.1461618884112391 0.06008382798921665 0.1525549689629798 0.1446520243769725 0.1575552035339396 0.161705378269843 0.1625125310979121 0.07851502015972088 0.1560953899662861 0.1615403245524118 0.07724545607325521 0.07851502015972088 0.07679160659532067 0.0715441032608341 0.07851502015972088 0.05975498912428581 0.1605918895659711 0.1605918895659711 0.07508200216735468 0.07724545607325521 0.05804343687669674 0.05975498912428581 0.05964104838482474 0.06420990436953976 0.05975498912428581 0.1387030441908568 0.1596421756636445 0.04659099206254313 0.07040753914083844 0.1466608263168565 0.1579196652058916 0.07031828931217995 0.07205143311352842 0.07099978865091963 0.066913418042216 0.0533006287624146 0.06744473515852625 0.0575873562048862 0.05804343687669674 0.1393363372805261 0.1387030441908568 0.1575552035339396 0.1604146847028803 0.1561971979190971 0.0709239774139068 0.1547603555992047 0.1605918895659711 0.07638698008131641 0.07724545607325521 0.07070079204433306 0.05481525515148803 0.06311784425880841 0.1596421756636445 0.06845870774779363 0.06845870774779363 0.1533117418768765 0.1506588564423499 0.04611507422303207 0.0740232674520661 0.07638698008131641 0.05827320360492776 0.05804343687669674 0.06525566337881872 0.1324667975840753 0.05862072881696623 0.1458566437405083 0.1387030441908568 0.1575552035339396 0.1560953899662861 0.1560953899662861 0.05617044326734775 0.1579196652058916 0.1545913244837435 0.06933056954625731 0.05349690319746046 0.05747756470229796 0.1540831338352438 0.07040753914083844 0.1596421756636445 0.1534840600971008 0.06828180387029323 0.06845870774779363 0.06624338328137078 0.1534840600971008 0.1472292325340107 0.06122854269462594 0.1534840600971008 0.1461618884112391 0.1519784996825809 0.1579196652058916 0.07031828931217995 0.07638698008131641 0.07031828931217995 0.05254001574205285 0.06555567076520916 0.06624338328137078 0.06325249764934897 0.1461618884112391 0.1395265864801548 0.05770816396077643 0.1461618884112391 0.1380398862367608 0.1521500354962708 0.1561971979190971 0.1575552035339396 0.07679160659532067 0.1502756946464475 0.1560953899662861 0.07508200216735468 0.07679160659532067 0.07488637848080462 0.06959158063307676 0.07679160659532067 0.05964104838482474 0.1547603555992047 0.1547603555992047 0.0728120344650291 0.07508200216735468 0.0575873562048862 0.05964104838482474 0.05951854301575032 0.0632744712954082 0.05964104838482474 0.1324667975840753 0.1540831338352438 0.04611507422303207 0.06828611905248112 0.1406933984886183 0.1519784996825809 0.06850282706342886 0.07031828931217995 0.06897509889549042 0.06624338328137078 0.05210373530208152 0.06490860452165839 0.05716988685220718 0.0575873562048862 0.1330129205770963 0.1324667975840753 0.1521500354962708 0.1545913244837435 0.1503427824363932 0.06931269212931768 0.148627367621988 0.1547603555992047 0.0740232674520661 0.07508200216735468 0.06859249431225929 0.05395419987412895 0.06241657389426346 0.1540831338352438 0.06828180387029323 0.06828180387029323 0.1470278186116261 0.1449803714207331 0.04574792844384964 0.07160086251872722 0.0740232674520661 0.05795321771593073 0.0575873562048862 0.06440984452292052 0.1260263088788167 0.05635468074724508 0.1391862394103465 0.1324667975840753 0.1521500354962708 0.1502756946464475 0.1502756946464475 0.05570493692854612 0.1519784996825809 0.1484636264696533 0.06733454335152264 0.05252477485009441 0.05527702057564141 0.1481901590483717 0.06828611905248112 0.1540831338352438 0.1472292325340107 0.06799373513527283 0.06828180387029323 0.06555567076520916 0.1472292325340107 0.1407193757899042 0.05898705824054921 0.1472292325340107 0.1395265864801548 0.1457607861097704 0.1519784996825809 0.06850282706342886 0.0740232674520661 0.06850282706342886 0.05144824616507494 0.06485600268548361 0.06555567076520916 0.0623514711547855 0.1395265864801548 0.1326559761692301 0.05530631333293481 0.1395265864801548 0.1311947031407927 0.1463470561995468 0.1503427824363932 0.1521500354962708 0.07488637848080462 0.144121564888846 0.1502756946464475 0.0728120344650291 0.07488637848080462 0.07282346215190673 0.06757750591865858 0.07488637848080462 0.05951854301575032 0.148627367621988 0.148627367621988 0.07044994902353988 0.0728120344650291 0.05716988685220718 0.05951854301575032 0.05940612956420565 0.06236482132292982 0.05951854301575032 0.1260263088788167 0.1481901590483717 0.04574792844384964 0.06604127701243338 0.1344999908441566 0.1457607861097704 0.06663209432747404 0.06850282706342886 0.06693206741120059 0.06555567076520916 0.05100519914027995 0.06229526286426142 0.05679108155929798 0.05716988685220718 0.1264824587678027 0.1260263088788167 0.1463470561995468 0.1484636264696533 0.1441678021152457 0.06757937079352559 0.142216868128583 0.148627367621988 0.07160086251872722 0.0728120344650291 0.06645584290319122 0.05317528713782758 0.06173487413790371 0.1481901590483717 0.06799373513527283 0.06799373513527283 0.1404952986811535 0.139059708904206 0.04550674395939661 0.06912809790334283 0.07160086251872722 0.0576501107976861 0.05716988685220718 0.0635686363289515 0.1193962835082048 0.05410154812143687 0.1322931095566783 0.1260263088788167 0.1463470561995468 0.144121564888846 0.144121564888846 0.05526925709888883 0.1457607861097704 0.1420546487318651 0.06528606192723786 0.05163217373468455 0.05311023678985944 0.1419810992883633 0.06604127701243338 0.1481901590483717 0.1407193757899042 0.06761988978684912 0.06799373513527283 0.06485600268548361 0.1407193757899042 0.1339554046234872 0.05669317531912635 0.1407193757899042 0.1326559761692301 0.1392808870677091 0.1457607861097704 0.06663209432747404 0.07160086251872722 0.06663209432747404 0.05046880293737607 0.06415132849443435 0.06485600268548361 0.06148040671227453 0.1326559761692301 0.1255558645476496 0.05289600307482131 0.1326559761692301 0.1241311513119969 0.1401846230950425 0.1441678021152457 0.1463470561995468 0.07282346215190673 0.1376607197042125 0.144121564888846 0.07044994902353988 0.07282346215190673 0.07062372093264088 0.06550338883990504 0.07282346215190673 0.05940612956420565 0.142216868128583 0.142216868128583 0.06800697563475812 0.07044994902353988 0.05679108155929798 0.05940612956420565 0.05931940410356514 0.0614875599775765 0.05940612956420565 0.1193962835082048 0.1419810992883633 0.04550674395939661 0.06368685544412733 0.1280787347408797 0.1392808870677091 0.06472730754577027 0.06663209432747404 0.06487393533320066 0.06485600268548361 0.05001863241262653 0.0596216111154728 0.05645262964884563 0.05679108155929798 0.1197479846260079 0.1193962835082048 0.1401846230950425 0.1420546487318651 0.1376911240908563 0.06574011059059924 0.13554549450818 0.142216868128583 0.06912809790334283 0.07044994902353988 0.06429210625993344 0.05248868374285241 0.06109061995508366 0.1419810992883633 0.06761988978684912 0.06761988978684912 0.1337169440408605 0.1329083172224242 0.0454063941153597 0.06661297836088036 0.06912809790334283 0.05736289458903902 0.05679108155929798 0.06273689239512927 0.1125929884117119 0.05188299406386825 0.1251817846590205 0.1193962835082048 0.1401846230950425 0.1376607197042125 0.1376607197042125 0.05488071173529358 0.1392808870677091 0.1353801555882254 0.06318933222560102 0.05083259139996923 0.05100672385080574 0.1354706099472037 0.06368685544412733 0.1419810992883633 0.1339554046234872 0.06718255353729057 0.06761988978684912 0.06415132849443435 0.1339554046234872 0.1269393471528797 0.05436014397339124 0.1339554046234872 0.1255558645476496 0.1325525559886938 0.1392808870677091 0.06472730754577027 0.06912809790334283 0.06472730754577027 0.0496136709443247 0.06345004716374242 0.06415132849443435 0.06064631531092141 0.1255558645476496 0.1182328330769703 0.05049754659456015 0.1255558645476496 0.1168640948200297 0.1336923841747654 0.1376911240908563 0.1401846230950425 0.07062372093264088 0.130913406127197 0.1376607197042125 0.06800697563475812 0.07062372093264088 0.06830603928161283 0.0633722005110445 0.07062372093264088 0.05931940410356514 0.13554549450818 0.13554549450818 0.06549387989473807 0.06800697563475812 0.05645262964884563 0.05931940410356514 0.05927123758084765 0.06065001214263396 0.05931940410356514 0.1125929884117119 0.1354706099472037 0.0454063941153597 0.06123943344544624 0.1214300720395907 0.1325525559886938 0.06280711461671043 0.06472730754577027 0.06280535768097152 0.06415132849443435 0.04915824368305978 0.05690601666836982 0.05615754069076409 0.05645262964884563 0.1128148177337287 0.1125929884117119 0.1336923841747654 0.1353801555882254 0.13092745418248 0.06381078022159824 0.1286263013320475 0.13554549450818 0.06661297836088036 0.06800697563475812 0.06210423210280153 0.05190686072588913 0.06049921223544764 0.1354706099472037 0.06718255353729057 0.06718255353729057 0.1266961583628678 0.1265385810936343 0.04545959780928494 0.06406490069551701 0.06661297836088036 0.0570930770118608 0.05645262964884563 0.06192081948604584 0.1056357003903737 0.04972450569399285 0.1178586745483266 0.1125929884117119 0.1336923841747654 0.130913406127197 0.130913406127197 0.05455811361199162 0.1325525559886938 0.1284522694175103 0.06105059939148583 0.0501403505236074 0.04899915746191903 0.128671844349382 0.06123943344544624 0.1354706099472037 0.1269393471528797 0.06670179412899264 0.06718255353729057 0.06345004716374242 0.1269393471528797 0.1196751278601906 0.05200435258273617 0.1269393471528797 0.1182328330769703 0.1255895576706452 0.1325525559886938 0.06280711461671043 0.06661297836088036 0.06280711461671043 0.04889614212030614 0.06276196523732071 0.06345004716374242 0.05985708208196902 0.1182328330769703 0.1106956136891274 0.04813504134816329 0.1182328330769703 0.1094101988660986 0.126894140651151 0.13092745418248 0.1336923841747654 0.06830603928161283 0.1238958118988781 0.130913406127197 0.06549387989473807 0.06830603928161283 0.06588854494667427 0.06118931264743699 0.06830603928161283 0.05927123758084765 0.1286263013320475 0.1286263013320475 0.06292254377812354 0.06549387989473807 0.05615754069076409 0.05927123758084765 0.05927221522809127 0.05986038442146999 0.05927123758084765 0.1056357003903737 0.128671844349382 0.04545959780928494 0.05871852293981428 0.1145573068034885 0.1255895576706452 0.06088941008847985 0.06280711461671043 0.06073358722862448 0.06345004716374242 0.04843935669540558 0.05416992755746036 0.05590985784047344 0.05615754069076409 0.1056915253697665 0.1056357003903737 0.126894140651151 0.1284522694175103 0.1238892745156208 0.06180764946006823 0.1214710865310779 0.1286263013320475 0.06406490069551701 0.06549387989473807 0.05989780243604183 0.05144449431076909 0.05997423136833741 0.128671844349382 0.06670179412899264 0.06670179412899264 0.1194381662460859 0.1199642100199556 0.04567689987164569 0.06149562573327403 0.06406490069551701 0.05684411892057382 0.05615754069076409 0.06112816777859597 0.09854858183379359 0.04765622859620385 0.1103331827376499 0.1056357003903737 0.126894140651151 0.1238958118988781 0.1238958118988781 0.05432129819018582 0.1255895576706452 0.1212817605618039 0.05887877840824954 0.04957121737396553 0.04712389774529996 0.1215978790743881 0.05871852293981428 0.128671844349382 0.1196751278601906 0.06619616786026279 0.06670179412899264 0.06276196523732071 0.1196751278601906 0.1121692818366312 0.04964622917722696 0.1196751278601906 0.1106956136891274 0.1184063833268393 0.1255895576706452 0.06088941008847985 0.06406490069551701 0.06088941008847985 0.04833091584836836 0.06209819501541497 0.06276196523732071 0.05912162393854415 0.1106956136891274 0.1029564726191303 0.0458375903150931 0.1106956136891274 0.1017897941945375 0.1198104246622345 0.1238892745156208 0.126894140651151 0.06588854494667427 0.1166225288055421 0.1238958118988781 0.06292254377812354 0.06588854494667427 0.06338980464396839 0.05896291261999502 0.06588854494667427 0.05927221522809127 0.1214710865310779 0.1214710865310779 0.06030707388835518 0.06292254377812354 0.05590985784047344 0.05927221522809127 0.05933107050341303 0.05912779511830832 0.05927221522809127 0.09854858183379359 0.1215978790743881 0.04567689987164569 0.05614718451410115 0.1074671732622547 0.1184063833268393 0.05899246366729301 0.06088941008847985 0.05866895447182462 0.06276196523732071 0.04787830441167815 0.05143944791321435 0.05571442214253217 0.05590985784047344 0.09839109812934987 0.09854858183379359 0.1198104246622345 0.1212817605618039 0.1165884119848054 0.05974810164996626 0.1140921036625346 0.1214710865310779 0.06149562573327403 0.06292254377812354 0.05768144599007805 0.05111799805236615 0.05952792173285199 0.1215978790743881 0.06619616786026279 0.06619616786026279 0.1119510005691007 0.1132008314577277 0.04606657506123159 0.05892000732802153 0.06149562573327403 0.05662099645066571 0.05590985784047344 0.06036823991404448 0.09136332723829772 0.04571370194212096 0.1026190163295486 0.09854858183379359 0.1198104246622345 0.1166225288055421 0.1166225288055421 0.05419069066690402 0.1184063833268393 0.1138797110276819 0.05668587569576513 0.04914234485681795 0.04542128192204554 0.1142630981834667 0.05614718451410115 0.1215978790743881 0.1121692818366312 0.06568330102212507 0.06619616786026279 0.06209819501541497 0.1121692818366312 0.1044318809518173 0.04731128199800759 0.1121692818366312 0.1029564726191303 0.1110192201608396 0.1184063833268393 0.05899246366729301 0.06149562573327403 0.05899246366729301 0.04793371306317118 0.06147105234683738 0.06209819501541497 0.05844990123601186 0.1029564726191303 0.09503302796357233 0.04364055617438849 0.1029564726191303 0.09402937364146034 0.1124608714750045 0.1165884119848054 0.1198104246622345 0.06338980464396839 0.1091085886617503 0.1166225288055421 0.06030707388835518 0.06338980464396839 0.06083003066295775 0.05670432496739776 0.06338980464396839 0.05933107050341303 0.1140921036625346 0.1140921036625346 0.05766477464766948 0.06030707388835518 0.05571442214253217 0.05933107050341303 0.05945506122763652 0.0584622382870711 0.05933107050341303 0.09136332723829772 0.1142630981834667 0.04606657506123159 0.05355304945697723 0.100170709288666 0.1110192201608396 0.05713570482500093 0.05899246366729301 0.05662513444029447 0.06209819501541497 0.04749196335533733 0.04874706655166042 0.05557667987992929 0.05571442214253217 0.09093271232368887 0.09136332723829772 0.1124608714750045 0.1138797110276819 0.1090374976708716 0.05765142943597676 0.10650363660609 0.1140921036625346 0.05892000732802153 0.06030707388835518 0.05546712994718627 0.05094487038100109 0.05917152396921613 0.1142630981834667 0.06568330102212507 0.06568330102212507 0.1042466704711133 0.1062669568747985 0.04663454013850958 0.05635670982185827 0.05892000732802153 0.05642987062660683 0.05571442214253217 0.05965182924435999 0.08412309068821429 0.04393834027979145 0.09473608556556269 0.09136332723829772 0.1124608714750045 0.1091085886617503 0.1091085886617503 0.05418687911907909 0.1110192201608396 0.1062590134380474 0.05448742181462692 0.0488718355251823 0.04393543405925567 0.1066847741525305 0.05355304945697723 0.1142630981834667 0.1044318809518173 0.06518036127061257 0.06568330102212507 0.06147105234683738 0.1044318809518173 0.0964779591675471 0.04503133707782732 0.1044318809518173 0.09503302796357233 0.1034473260248842 0.1110192201608396 0.05713570482500093 0.05892000732802153 0.05713570482500093 0.0477206179978063 0.06089395923177738 0.06147105234683738 0.05785284711814008 0.09503302796357233 0.08695102429340593 0.04158673580706837 0.09503302796357233 0.08616527709355548 0.1048666122031667 0.1090374976708716 0.1124608714750045 0.06083003066295775 0.1013714931750584 0.1091085886617503 0.05766477464766948 0.06083003066295775 0.05823235035767368 0.05442841828425852 0.06083003066295775 0.05945506122763652 0.10650363660609 0.10650363660609 0.05501717365211518 0.05766477464766948 0.05557667987992929 0.05945506122763652 0.05965027007420019 0.05787450215373941 0.05945506122763652 0.08412309068821429 0.1066847741525305 0.04663454013850958 0.05096973109240974 0.09268472492352914 0.1034473260248842 0.05534031113050539 0.05713570482500093 0.05461939445902982 0.06147105234683738 0.04729707144884686 0.04613362145317625 0.05550251953101142 0.05557667987992929 0.08334457237223654 0.08412309068821429 0.1048666122031667 0.1062590134380474 0.1012515772294049 0.05553971080951566 0.09872382064449811 0.10650363660609 0.05635670982185827 0.05766477464766948 0.05327050015646528 0.05094294649619348 0.05891547613045555 0.1066847741525305 0.06518036127061257 0.06518036127061257 0.09634286368654225 0.09918548032005538 0.04738433091929196 0.05382901982910053 0.05635670982185827 0.05627783881803687 0.05557667987992929 0.05899112418468362 0.07688851159018535 0.04237739774129593 0.08671352300312744 0.08412309068821429 0.1048666122031667 0.1013714931750584 0.1013714931750584 0.05433016110472966 0.1034473260248842 0.09843607914290008 0.05230300785820858 0.04877808126102839 0.0427133109265212 0.09888515511196184 0.05096973109240974 0.1066847741525305 0.0964779591675471 0.06470442309613068 0.06518036127061257 0.06089395923177738 0.0964779591675471 0.08832985670230868 0.04284593533737269 0.0964779591675471 0.08695102429340593 0.09571504684090093 0.1034473260248842 0.05534031113050539 0.05635670982185827 0.05534031113050539 0.04770727922364863 0.06038133815671762 0.06089395923177738 0.05734223946397132 0.08695102429340593 0.07874890684504118 0.03972718284224937 0.08695102429340593 0.07824949222958014 0.09705304547128385 0.1012515772294049 0.1048666122031667 0.05823235035767368 0.09343368207937129 0.1013714931750584 0.05501717365211518 0.05823235035767368 0.05562419744283344 0.05215417150363499 0.05823235035767368 0.05965027007420019 0.09872382064449811 0.09872382064449811 0.05239120775494151 0.05501717365211518 0.05550251953101142 0.05965027007420019 0.05992183011948232 0.0573760457305558 0.05965027007420019 0.07688851159018535 0.09888515511196184 0.04738433091929196 0.04843859540256996 0.08503429057879848 0.09571504684090093 0.05362965035532671 0.05534031113050539 0.05267288023801669 0.06089395923177738 0.04730943232660484 0.04365045076432585 0.05549812691088719 0.05550251953101142 0.07566865017699581 0.07688851159018535 0.09705304547128385 0.09843607914290008 0.09325020813403086 0.05343876285853254 0.0907771501624198 0.09872382064449811 0.05382901982910053 0.05501717365211518 0.05111132822205423 0.05112961006142154 0.0587695070866628 0.09888515511196184 0.06470442309613068 0.06470442309613068 0.08826566887966941 0.09198596116514801 0.04831717389210642 0.05136578717221533 0.05382901982910053 0.05617274024724652 0.05550251953101142 0.05839958428959185 0.06974714468835828 0.04108305448281981 0.07859470748052003 0.07688851159018535 0.09705304547128385 0.09343368207937129 0.09343368207937129 0.0546400534717745 0.09571504684090093 0.09043318167570281 0.05015695257009677 0.04887898070159431 0.04180274592559138 0.09089453293525657 0.04843859540256996 0.09888515511196184 0.08832985670230868 0.06427272881903887 0.06470442309613068 0.06038133815671762 0.08832985670230868 0.08002122044833887 0.04080372433759848 0.08832985670230868 0.07874890684504118 0.08785489759858996 0.09571504684090093 0.05362965035532671 0.05382901982910053 0.05362965035532671 0.04790807246634524 0.05994848085630305 0.06038133815671762 0.05693052389248535 0.07874890684504118 0.0704857379662311 0.03812119403370266 0.07874890684504118 0.07035919598519932 0.08905354849136295 0.09325020813403086 0.09705304547128385 0.05562419744283344 0.08532605449203598 0.09343368207937129 0.05239120775494151 0.05562419744283344 0.05303887497649467 0.04990542472915394 0.05562419744283344 0.05992183011948232 0.0907771501624198 0.0907771501624198 0.04982062156001242 0.05239120775494151 0.05549812691088719 0.05992183011948232 0.06027408475838016 0.05697883280968758 0.05992183011948232 0.06974714468835828 0.09089453293525657 0.04831717389210642 0.04601079626318002 0.07725698558390011 0.08785489759858996 0.05202957008053914 0.05362965035532671 0.05081092500644691 0.06038133815671762 0.04754310220431611 0.04136145158528243 0.05556985079749147 0.05549812691088719 0.06796879695109805 0.06974714468835828 0.08905354849136295 0.09043318167570281 0.085060572472461 0.05137915766234181 0.08269833618101038 0.0907771501624198 0.05136578717221533 0.05239120775494151 0.04901406546684559 0.05152101568295221 0.05874264603439899 0.09089453293525657 0.06427272881903887 0.06427272881903887 0.08005413928236503 0.08470812710762628 0.04943215737964166 0.04900246598777516 0.05136578717221533 0.05612299270184379 0.05549812691088719 0.05789178112494915 0.06282824466015507 0.0401102467556165 0.07044590952644533 0.06974714468835828 0.08905354849136295 0.08532605449203598 0.08532605449203598 0.05513477806734769 0.08785489759858996 0.08228207872003257 0.04807907880437301 0.04919111934485875 0.04124942792648773 0.08275610070822918 0.04601079626318002 0.09089453293525657 0.08002122044833887 0.06390284570750003 0.06427272881903887 0.05994848085630305 0.08002122044833887 0.07160407191496417 0.03896347487864969 0.08002122044833887 0.0704857379662311 0.0799124655429352 0.08785489759858996 0.05202957008053914 0.05136578717221533 0.05202957008053914 0.04833531963788645 0.05961137559250648 0.05994848085630305 0.05663059069181339 0.0704857379662311 0.06225544194361357 0.03683476586959156 0.0704857379662311 0.06261288976750891 0.08091506682177085 0.085060572472461 0.08905354849136295 0.05303887497649467 0.07709356936665923 0.08532605449203598 0.04982062156001242 0.05303887497649467 0.05051730291421837 0.04771180324979256 0.05303887497649467 0.06027408475838016 0.08269833618101038 0.08269833618101038 0.04734755815704009 0.04982062156001242 0.05556985079749147 0.06027408475838016 0.06071069414162752 0.05669512299220302 0.06027408475838016 0.06282824466015507 0.08275610070822918 0.04943215737964166 0.04374931708670667 0.06941028779249521 0.0799124655429352 0.05056848978287998 0.05202957008053914 0.04906331458135928 0.05994848085630305 0.04800965631181809 0.03934437327741837 0.055724074917735 0.05556985079749147 0.06034496095923782 0.06282824466015507 0.08091506682177085 0.08228207872003257 0.07672254896037461 0.04939724914560634 0.07453867059428131 0.08269833618101038 0.04900246598777516 0.04982062156001242 0.04700845626561934 0.05213137829309369 0.05884317132075687 0.08275610070822918 0.06390284570750003 0.06390284570750003 0.07176822189879599 0.0774073475849221 0.05072648761526335 0.0467821398926738 0.04900246598777516 0.0561374437889901 0.05556985079749147 0.05748319330741674 0.05632521866691181 0.03951302708706971 0.06237160472751439 0.06282824466015507 0.08091506682177085 0.07709356936665923 0.07709356936665923 0.05583075460176634 0.0799124655429352 0.07403004943956866 0.04610552014661316 0.04972899671561095 0.04109308856472629 0.0745340653085001 0.04374931708670667 0.08275610070822918 0.07160407191496417 0.06361271941405305 0.06390284570750003 0.05961137559250648 0.07160407191496417 0.06316177763780745 0.03739405916453813 0.07160407191496417 0.06225544194361357 0.07195451715981152 0.0799124655429352 0.05056848978287998 0.04900246598777516 0.05056848978287998 0.04899865171389636 0.05938648115248508 0.05961137559250648 0.05645550872722425 0.06225544194361357 0.0542132230934875 0.03593679332977522 0.06225544194361357 0.05519781944835477 0.07270726297873902 0.07672254896037461 0.08091506682177085 0.05051730291421837 0.06880482125613689 0.07709356936665923 0.04734755815704009 0.05051730291421837 0.04810987595404729 0.045609752391931 0.05051730291421837 0.06071069414162752 0.07453867059428131 0.07453867059428131 0.04502419737465194 0.04734755815704009 0.055724074917735 0.06071069414162752 0.06123470004657534 0.05653722246521663 0.06071069414162752 0.05632521866691181 0.0745340653085001 0.05072648761526335 0.0417304472714876 0.06158475127626492 0.07195451715981152 0.04927722232704505 0.05056848978287998 0.04746439189482982 0.05961137559250648 0.04871762513963408 0.03769011442734101 0.05596709515362853 0.055724074917735 0.05295845507398181 0.05632521866691181 0.07270726297873902 0.07403004943956866 0.06829756465312298 0.04753609256311396 0.06637705778939318 0.07453867059428131 0.0467821398926738 0.04734755815704009 0.04513010460948137 0.05297238784169685 0.05907852044416313 0.0745340653085001 0.06361271941405305 0.06361271941405305 0.06350300214030766 0.07016333952134694 0.05219580236953526 0.04475628248306744 0.0467821398926738 0.05622522568051264 0.055724074917735 0.05718994629565426 0.05052617764954768 0.03933967633438974 0.05454210677001418 0.05632521866691181 0.07270726297873902 0.06880482125613689 0.06880482125613689 0.05674214285736417 0.07195451715981152 0.06575052111906955 0.04427939367116578 0.05050438350889267 0.04136359094853673 0.06632775656408277 0.0417304472714876 0.0745340653085001 0.06316177763780745 0.06342062415574444 0.06361271941405305 0.05938648115248508 0.06316177763780745 0.05483376406291719 0.03617242893699034 0.06316177763780745 0.0542132230934875 0.06408282848326015 0.07195451715981152 0.04927722232704505 0.0467821398926738 0.04927722232704505 0.04990458610331304 0.05929044178524022 0.05938648115248508 0.05641822291924054 0.0542132230934875 0.04662488801638525 0.03549270805224515 0.0542132230934875 0.04841455242483837 0.06453834315629087 0.06829756465312298 0.07270726297873902 0.04810987595404729 0.06056927296520467 0.06880482125613689 0.04502419737465194 0.04810987595404729 0.04587818637861871 0.04364353352607787 0.04810987595404729 0.06123470004657534 0.06637705778939318 0.06637705778939318 0.04291407932316109 0.04502419737465194 0.05596709515362853 0.06123470004657534 0.06184855930480126 0.05651720181883844 0.06123470004657534 0.05052617764954768 0.06632775656408277 0.05219580236953526 0.04004365089598339 0.05392803123403273 0.06408282848326015 0.04818843802755837 0.04927722232704505 0.04605283486414025 0.05938648115248508 0.0496721686379851 0.03649831240082389 0.05630500321473669 0.05596709515362853 0.04607606236687214 0.05052617764954768 0.06453834315629087 0.06575052111906955 0.05988491608891921 0.04584603354430385 0.05833984260565038 0.06637705778939318 0.04475628248306744 0.04502419737465194 0.04342080693726308 0.05405280000826043 0.05945518112921205 0.06632775656408277 0.06342062415574444 0.06342062415574444 0.05541500558843891 0.06309412421048409 0.05383450947474947 0.04298482136803346 0.04475628248306744 0.05639560704982897 0.05596709515362853 0.05702849219521812 0.04584295823707551 0.03962742967209459 0.0472428052870872 0.05052617764954768 0.06453834315629087 0.06056927296520467 0.06056927296520467 0.05788047753993739 0.06408282848326015 0.0575625943399901 0.04265105565869538 0.05152587910253208 0.04207789655714009 0.0582968345947049 0.04004365089598339 0.06632775656408277 0.05483376406291719 0.06334501153702907 0.06342062415574444 0.05929044178524022 0.05483376406291719 0.04686377042454898 0.03537859710557934 0.05483376406291719 0.04662488801638525 0.05645818122279479 0.06408282848326015 0.04818843802755837 0.04475628248306744 0.04818843802755837 0.05105635897419289 0.05933974498755696 0.05929044178524022 0.05653122728789561 0.04662488801638525 0.03995313715515043 0.03555632805911988 0.04662488801638525 0.04273749577816481 0.05658330694045012 0.05988491608891921 0.06453834315629087 0.04587818637861871 0.0525693016669713 0.06056927296520467 0.04291407932316109 0.04587818637861871 0.04389607896096682 0.04186589102233283 0.04587818637861871 0.06184855930480126 0.05833984260565038 0.05833984260565038 0.04109242023326081 0.04291407932316109 0.05630500321473669 0.06184855930480126 0.06255415342913311 0.05664659352541377 0.06184855930480126 0.04584295823707551 0.0582968345947049 0.05383450947474947 0.0387883191333061 0.04668871323150343 0.05645818122279479 0.04733569577283506 0.04818843802755837 0.04487090423262003 0.05929044178524022 0.05087501979145567 0.03586778802141443 0.05674357989273247 0.05630500321473669 0.04013889381915136 0.04584295823707551 0.05658330694045012 0.0575625943399901 0.05165318806423422 0.04438460918542848 0.05063705513601172 0.05833984260565038 0.04298482136803346 0.04291407932316109 0.04192836459085063 0.05537823432083371 0.05997858067769851 0.0582968345947049 0.06334501153702907 0.06334501153702907 0.04777100816075378 0.05637802981273046 0.05563611873110186 0.04153488219994472 0.04298482136803346 0.05665783993723751 0.05630500321473669 0.05701523234977537 0.04280138132297795 0.04039820233875533 0.04095313504857086 0.04584295823707551 0.05658330694045012 0.0525693016669713 0.0525693016669713 0.05925442989132915 0.05645818122279479 0.04966791605219612 0.04127752073273847 0.05279871330835889 0.04323878860294796 0.05070628762275076 0.0387883191333061 0.0582968345947049 0.04686377042454898 0.06340426314210218 0.06334501153702907 0.05933974498755696 0.04686377042454898 0.0396915922771361 0.03508729741067956 0.04686377042454898 0.03995313715515043 0.04934129537688516 0.05645818122279479 0.04733569577283506 0.04298482136803346 0.04733569577283506 0.05245401435931151 0.05955033299134196 0.05933974498755696 0.05680623152356892 0.03995313715515043 0.03496760527462367 0.03616207893348176 0.03995313715515043 0.03884988853881685 0.04913406699228641 0.05165318806423422 0.05658330694045012 0.04389607896096682 0.0451196452504003 0.0525693016669713 0.04109242023326081 0.04389607896096682 0.04224911538345257 0.04033790993941146 0.04389607896096682 0.06255415342913311 0.05063705513601172 0.05063705513601172 0.03964435173673699 0.04109242023326081 0.05674357989273247 0.06255415342913311 0.06335277932916668 0.05693608689230955 0.06255415342913311 0.04280138132297795 0.05070628762275076 0.05563611873110186 0.03806594310835851 0.04029097500334198 0.04934129537688516 0.0467520154089139 0.04733569577283506 0.04396296314920328 0.05933974498755696 0.05232468580590228 0.03588233197158066 0.05728820244358823 0.05674357989273247 0.03582985500563742 0.04280138132297795 0.04913406699228641 0.04966791605219612 0.04390178532772703 0.04321528314871668 0.04362659824738843 0.05063705513601172 0.04153488219994472 0.04109242023326081 0.04070550159297479 0.05695118363357235 0.06065298722431522 0.05070628762275076 0.06340426314210218 0.06340426314210218 0.0410328996829654 0.05028585187603506 0.05759354106256402 0.04047752142893412 0.04153488219994472 0.05702100277541537 0.05674357989273247 0.05716609511009436 0.04192488250521216 0.04165666290620113 0.03642689262013385 0.04280138132297795 0.04913406699228641 0.0451196452504003 0.0451196452504003 0.06086971265830197 0.04934129537688516 0.04241939786584801 0.04022053753985506 0.05432480000606166 0.04483569852459164 0.04400097956499985 0.03806594310835851 0.05070628762275076 0.0396915922771361 0.06361635708837807 0.06340426314210218 0.05955033299134196 0.0396915922771361 0.03409525236213105 0.03535762042864359 0.0396915922771361 0.03496760527462367 0.04315555083587907 0.04934129537688516 0.0467520154089139 0.04153488219994472 0.0467520154089139 0.05409471430260866 0.05993718804838354 0.05955033299134196 0.05725384419671181 0.03496760527462367 0.03271552215425703 0.03732041124171746 0.03496760527462367 0.03751919161232359 0.04268004440918735 0.04390178532772703 0.04913406699228641 0.04224911538345257 0.0387669851855042 0.0451196452504003 0.03964435173673699 0.04224911538345257 0.04103119650046968 0.03912740489533837 0.04224911538345257 0.06335277932916668 0.04362659824738843 0.04362659824738843 0.03865986481601624 0.03964435173673699 0.05728820244358823 0.06335277932916668 0.06424512314569801 0.05739524229052802 0.06335277932916668 0.04192488250521216 0.04400097956499985 0.05759354106256402 0.03796758057768671 0.03542814023416575 0.04315555083587907 0.04646806005054781 0.0467520154089139 0.0433731601462747 0.05955033299134196 0.05401685699801809 0.03659577473651115 0.05794377170234737 0.05728820244358823 0.03400206603801496 0.04192488250521216 0.04268004440918735 0.04241939786584801 0.03717418347196496 0.04240453281486882 0.03790927491189723 0.04362659824738843 0.04047752142893412 0.03964435173673699 0.0398075114562555 0.05877121025764152 0.06148143202887113 0.04400097956499985 0.06361635708837807 0.06361635708837807 0.0359658859956587 0.04521767738875144 0.05969933589651415 0.03988204622441691 0.04047752142893412 0.05749384384631458 0.05728820244358823 0.05749609162397534 0.04350522167644957 0.04339123962462817 0.03460969578799401 0.04192488250521216 0.04268004440918735 0.0387669851855042 0.0387669851855042 0.06272912322071683 0.04315555083587907 0.03643257271872125 0.03954290773874214 0.05610301345790047 0.04684727701326555 0.03889519764942886 0.03796758057768671 0.04400097956499985 0.03409525236213105 0.06399846511564748 0.06361635708837807 0.05993718804838354 0.03409525236213105 0.031241520456725 0.03622383731144217 0.03409525236213105 0.03271552215425703 0.03854941744475091 0.04315555083587907 0.04646806005054781 0.04047752142893412 0.04646806005054781 0.05597320736830642 0.06051391965365156 0.05993718804838354 0.05788329871902786 0.03271552215425703 0.03400578662059548 0.03901823813078902 0.03271552215425703 0.03920692481312835 0.03799258065460288 0.03717418347196496 0.04268004440918735 0.04103119650046968 0.03439211787187823 0.0387669851855042 0.03865986481601624 0.04103119650046968 0.040337240469995 0.03830517267150175 0.04103119650046968 0.06424512314569801 0.03790927491189723 0.03790927491189723 0.03822482955818632 0.03865986481601624 0.05794377170234737 0.06424512314569801 0.06523121627692026 0.05803224822777749 0.06424512314569801 0.04350522167644957 0.03889519764942886 0.05969933589651415 0.03855934119066751 0.03304560747930668 0.03854941744475091 0.0465101226971863 0.04646806005054781 0.04314237304566294 0.05993718804838354 0.05594494987236241 0.03802274017895332 0.05871466531229384 0.05794377170234737 0.03526759623250283 0.04350522167644957 0.03799258065460288 0.03643257271872125 0.03240372411034654 0.04201707081328924 0.03438192517170451 0.03790927491189723 0.03988204622441691 0.03865986481601624 0.03928844999197052 0.06083528139043277 0.06246565662689962 0.03889519764942886 0.06399846511564748 0.06399846511564748 0.03361456582238993 0.04171220342820955 0.06194589439559423 0.03980836787620897 0.03988204622441691 0.05808463201586359 0.05794377170234737 0.05801888186708794 0.04744608241488426 0.045577556802874 0.03615225990726334 0.04350522167644957 0.03799258065460288 0.03439211787187823 0.03439211787187823 0.06483269858293216 0.03854941744475091 0.03267273461409977 0.039303063862436 0.05812963017974965 0.04924486301727726 0.036350496021272 0.03855934119066751 0.03889519764942886 0.031241520456725 0.06456650326436836 0.06399846511564748 0.06051391965365156 0.031241520456725 0.03217446905230015 0.03769114548178088 0.031241520456725 0.03400578662059548 0.03634411061070384 0.03854941744475091 0.0465101226971863 0.03988204622441691 0.0465101226971863 0.05808238187590198 0.06129238691609211 0.06051391965365156 0.05870224802278817 0.03400578662059548 0.0387150948573887 0.04122395954293353 0.03400578662059548 0.04374505908267349 0.03605176524668491 0.03240372411034654 0.03799258065460288 0.040337240469995 0.03307740211587565 0.03439211787187823 0.03822482955818632 0.040337240469995 0.04025200529267186 0.03793885304504183 0.040337240469995 0.06523121627692026 0.03438192517170451 0.03438192517170451 0.03840920398441773 0.03822482955818632 0.05871466531229384 0.06523121627692026 0.06631036951435464 0.05885374369229244 0.06523121627692026 0.04744608241488426 0.036350496021272 0.06194589439559423 0.03987134638327998 0.03392940304527289 0.03634411061070384 0.04689822673549666 0.0465101226971863 0.04330480944438606 0.06051391965365156 0.05810070547291513 0.04013962221154273 0.05960472407332499 0.05871466531229384 0.03953157345393989 0.04744608241488426 0.03605176524668491 0.03267273461409977 0.03082904571507594 0.04210961416215895 0.03398893353288553 0.03438192517170451 0.03980836787620897 0.03822482955818632 0.03919615660638704 0.06313818453846386 0.06360608277965819 0.036350496021272 0.06456650326436836 0.06456650326436836 0.03480952945627311 0.0403520747131075 0.06432555091930156 0.04029907783088588 0.03980836787620897 0.05880102363771386 0.05871466531229384 0.05874638919454518 0.05336025348880697 0.04818305435748867 0.04088868721898404 0.04744608241488426 0.03605176524668491 0.03307740211587565 0.03307740211587565 0.06717793968067683 0.03634411061070384 0.03220596281434265 0.03954870374409023 0.06039886612412252 0.05199594261619168 0.03717743322944095 0.03987134638327998 0.036350496021272 0.03217446905230015 0.06533466400274358 0.06456650326436836 0.06129238691609211 0.03217446905230015 0.03687289698697908 0.03973808201264726 0.03217446905230015 0.0387150948573887 0.03718369808113441 0.03634411061070384 0.04689822673549666 0.03980836787620897 0.04689822673549666 0.06041383483723439 0.06228238988049865 0.06129238691609211 0.05971665033099209 0.0387150948573887 0.04599992361638013 0.04389478380373888 0.0387150948573887 0.0505282537267781 0.03756370314697393 0.03082904571507594 0.03605176524668491 0.04025200529267186 0.03543760776186178 0.03307740211587565 0.03840920398441773 0.04025200529267186 0.04083743028139862 0.03808512297744421 0.04025200529267186 0.06631036951435464 0.03398893353288553 0.03398893353288553 0.03925589472240392 0.03840920398441773 0.05960472407332499 0.06631036951435464 0.0674810776627989 0.05986472409436282 0.06631036951435464 0.05336025348880697 0.03717743322944095 0.06432555091930156 0.04189523129521794 0.03808475043741919 0.03718369808113441 0.04764469453036831 0.04689822673549666 0.04388493533625858 0.06129238691609211 0.06047477428307706 0.04289469246836871 0.06061727905566495 0.05960472407332499 0.04614473289524966 0.05336025348880697 0.03756370314697393 0.03220596281434265 0.03320495233003933 0.04272446138533351 0.03706657890410051 0.03398893353288553 0.04029907783088588 0.03840920398441773 0.03956703264829498 0.06567296317915204 0.06490179697794461 0.03717743322944095 0.06533466400274358 0.06533466400274358 0.03947328234760119 0.04151994439788771 0.06683061722345847 0.04137380373435449 0.04029907783088588 0.05964995598715328 0.05960472407332499 0.05968850251990149 0.06079265167744747 0.05117149709816862 0.04806698186070496 0.05336025348880697 0.03756370314697393 0.03543760776186178 0.03543760776186178 0.06976005310971505 0.03718369808113441 0.03541556226263274 0.04031109309409413 0.06290344102830392 0.05506696443242466 0.04142774952173957 0.04189523129521794 0.03717743322944095 0.03687289698697908 0.06631495883977069 0.06533466400274358 0.06228238988049865 0.03687289698697908 0.04437782899799464 0.04232408618294603 0.03687289698697908 0.04599992361638013 0.04107709246994379 0.03718369808113441 0.04764469453036831 0.04029907783088588 0.04764469453036831 0.06295840292717082 0.06349145911134899 0.06228238988049865 0.06093076193191419 0.04599992361638013 0.05501376309579073 0.04698379588675909 0.04599992361638013 0.05892249109512494 0.0424079826071304 0.03320495233003933 0.03756370314697393 0.04083743028139862 0.04107998053860496 0.03543760776186178 0.03925589472240392 0.04083743028139862 0.04212293838227887 0.0387821889246763 0.04083743028139862 0.0674810776627989 0.03706657890410051 0.03706657890410051 0.04077477928312313 0.03925589472240392 0.06061727905566495 0.0674810776627989 0.06874088280756487 0.06106854278550614 0.0674810776627989 0.06079265167744747 0.04142774952173957 0.06683061722345847 0.04459094748548793 0.04480968082045657 0.04107709246994379 0.04875346710051322 0.04764469453036831 0.04489548194648935 0.06228238988049865 0.06305723825009461 0.04622180383019685 0.06175522797097332 0.06061727905566495 0.05440900554778971 0.06079265167744747 0.0424079826071304 0.03541556226263274 0.03906846749178573 0.04388469982684173 0.04308235298318615 0.03706657890410051 0.04137380373435449 0.03925589472240392 0.04042198441774607 0.06843132137924968 0.06635053491197637 0.04142774952173957 0.06631495883977069 0.06631495883977069 0.04678689965585369 0.04517946175620732 0.0694533332572215 0.04302795776589958 0.04137380373435449 0.06063757849827898 0.06061727905566495 0.06085289995961675 0.06936120240254784 0.0545065493857256 0.05692924215617064 0.06079265167744747 0.0424079826071304 0.04107998053860496 0.04107998053860496 0.07257215555448331 0.04107709246994379 0.04167632083493898 0.0416018744934047 0.06563511500873907 0.05842525078666527 0.04842647501844746 0.04459094748548793 0.04142774952173957 0.04437782899799464 0.06751679647564404 0.06631495883977069 0.06349145911134899 0.04437782899799464 0.05371329923127891 0.04539874253278967 0.04437782899799464 0.05501376309579073 0.04744911878781591 0.04107709246994379 0.04875346710051322 0.04137380373435449 0.04875346710051322 0.06570662148917927 0.06492476396441707 0.06349145911134899 0.06234724489395706 0.05501376309579073 0.06518860056565555 0.05044523225624267 0.05501376309579073 0.06845623288268718 0.04983522733178698 0.03906846749178573 0.0424079826071304 0.04212293838227887 0.04908722396812461 0.04107998053860496 0.04077477928312313 0.04212293838227887 0.04410279739303458 0.04004514794329306 0.04212293838227887 0.06874088280756487 0.04308235298318615 0.04308235298318615 0.04294446840338768 0.04077477928312313 0.06175522797097332 0.06874088280756487 0.07008617912183432 0.06246701286001183 0.06874088280756487 0.06936120240254784 0.04842647501844746 0.0694533332572215 0.04789885377064168 0.05331208230441571 0.04744911878781591 0.05022027832007694 0.04875346710051322 0.04633704680625313 0.06349145911134899 0.06583804193007178 0.0500522440530673 0.06302117047418257 0.06175522797097332 0.06381939995591449 0.06936120240254784 0.04983522733178698 0.04167632083493898 0.0473527332474102 0.04559257727683584 0.05118765486061177 0.04308235298318615 0.04302795776589958 0.04077477928312313 0.04176481660627274 0.07140395923669871 0.06794864469648604 0.04842647501844746 0.06751679647564404 0.06751679647564404 0.05589744816180202 0.05093970466573632 0.07218572514167669 0.04523618297467952 0.04302795776589958 0.06176923355817775 0.06175522797097332 0.06224501709816214 0.0787879313452295 0.05815416303748044 0.06694833782917792 0.06936120240254784 0.04983522733178698 0.04908722396812461 0.04908722396812461 0.07560538763495971 0.04744911878781591 0.05004028281694211 0.04341345183597894 0.06858516081131535 0.06204002865443317 0.05736392097338627 0.04789885377064168 0.04842647501844746 0.05371329923127891 0.0689466118696751 0.06751679647564404 0.06492476396441707 0.05371329923127891 0.0642479122491828 0.04890967405370954 0.05371329923127891 0.06518860056565555 0.05560278226626818 0.04744911878781591 0.05022027832007694 0.04302795776589958 0.05022027832007694 0.06864909604635498 0.0665851486105213 0.06492476396441707 0.06396738980831763 0.06518860056565555 0.07618818409479079 0.05423763645708331 0.06518860056565555 0.07882036605614558 0.05906312345784939 0.0473527332474102 0.04983522733178698 0.04410279739303458 0.05867424584700737 0.04908722396812461 0.04294446840338768 0.04410279739303458 0.04674132379055278 0.04186594853515718 0.04410279739303458 0.07008617912183432 0.05118765486061177 0.05118765486061177 0.0457205068296804 0.04294446840338768 0.06302117047418257 0.07008617912183432 0.07151193524163595 0.06406060726749647 0.07008617912183432 0.0787879313452295 0.05736392097338627 0.07218572514167669 0.05175172927248309 0.06302591982288973 0.05560278226626818 0.05203356712772779 0.05022027832007694 0.04819932852476837 0.06492476396441707 0.06880732313442876 0.05432228016380958 0.06441761349825643 0.06302117047418257 0.07405826419567405 0.0787879313452295 0.05906312345784939 0.05004028281694211 0.05719736618621968 0.04783139980365261 0.0607061247423361 0.05118765486061177 0.04523618297467952 0.04294446840338768 0.04358353674440148 0.07458081470617593 0.06969100020894665 0.05736392097338627 0.0689466118696751 0.0689466118696751 0.0662212929292114 0.05830894064302669 0.07501935528211288 0.04795884338391911 0.04523618297467952 0.06304949884404755 0.06302117047418257 0.06386816897841859 0.0888808837588982 0.06208392125464954 0.07780038996559646 0.0787879313452295 0.05906312345784939 0.05867424584700737 0.05867424584700737 0.07884888653232891 0.05560278226626818 0.05979173163346873 0.04572260763835573 0.07174475303197773 0.06588274356179859 0.06763784628814827 0.05175172927248309 0.05736392097338627 0.0642479122491828 0.07060754712135728 0.0689466118696751 0.0665851486105213 0.0642479122491828 0.07562266270257814 0.05280775803913669 0.0642479122491828 0.07618818409479079 0.06500130718271128 0.05560278226626818 0.05203356712772779 0.04523618297467952 0.05203356712772779 0.07177678463606274 0.06847329353241202 0.0665851486105213 0.06579144713783056 0.07618818409479079 0.08781608527905031 0.05832530668033842 0.07618818409479079 0.08981790506774827 0.0695388712340269 0.05719736618621968 0.05906312345784939 0.04674132379055278 0.06934331281241836 0.05867424584700737 0.0457205068296804 0.04674132379055278 0.04998291003868447 0.04421770660292668 0.04674132379055278 0.07151193524163595 0.0607061247423361 0.0607061247423361 0.04904602114158953 0.0457205068296804 0.06441761349825643 0.07151193524163595 0.07301130102589415 0.06584875034924687 0.07151193524163595 0.0888808837588982 0.06763784628814827 0.07501935528211288 0.05608335833659071 0.07360404625951068 0.06500130718271128 0.05417584144546625 0.05203356712772779 0.05046355512720294 0.0665851486105213 0.07195564624275733 0.05897662032298695 0.06594725881834627 0.06441761349825643 0.08493200268023492 0.0888808837588982 0.0695388712340269 0.05979173163346873 0.06808803018202077 0.05056996522223054 0.07121070917287037 0.0607061247423361 0.04795884338391911 0.0457205068296804 0.04585395523044995 0.07795119867224992 0.07157082660088099 0.06763784628814827 0.07060754712135728 0.07060754712135728 0.07740876675077862 0.06687078046483165 0.0779449418968996 0.05114911500549654 0.04795884338391911 0.06448230327118985 0.06441761349825643 0.06572382000071052 0.09950808063427605 0.06626964482439313 0.08929034289271881 0.0888808837588982 0.0695388712340269 0.06934331281241836 0.06934331281241836 0.08228956766871097 0.06500130718271128 0.07049891023694531 0.04849587844077188 0.0751052693547563 0.06992684190551891 0.07886767101443955 0.05608335833659071 0.06763784628814827 0.07562266270257814 0.07249916796101682 0.07060754712135728 0.06847329353241202 0.07562266270257814 0.08763409735782951 0.05704979059816587 0.07562266270257814 0.08781608527905031 0.07529472081756665 0.06500130718271128 0.05417584144546625 0.04795884338391911 0.05417584144546625 0.07508119702018833 0.07058799085277213 0.06847329353241202 0.06781905551285582 0.08781608527905031 0.09995416556747616 0.06267865704487097 0.08781608527905031 0.1013210192709921 0.08091981463934057 0.06808803018202077 0.0695388712340269 0.04998291003868447 0.08080506967872085 0.06934331281241836 0.04904602114158953 0.04998291003868447 0.05376250550520784 0.04706141080875756 0.04998291003868447 0.07301130102589415 0.07121070917287037 0.07121070917287037 0.05286102746312018 0.04904602114158953 0.06594725881834627 0.07301130102589415 0.07457505284926905 0.06783019097068285 0.07301130102589415 0.09950808063427605 0.07886767101443955 0.0779449418968996 0.06083302837569182 0.08483955530041 0.07529472081756665 0.05662514571520226 0.05417584144546625 0.05310541750867481 0.06847329353241202 0.07527414802532012 0.06396911858941887 0.06761338413025152 0.06594725881834627 0.09632116121555892 0.09950808063427605 0.08091981463934057 0.07049891023694531 0.07973867504917914 0.05376784990312417 0.08244900136695403 0.07121070917287037 0.05114911500549654 0.04904602114158953 0.04854429684510494 0.0815038174538405 0.07357938709129079 0.07886767101443955 0.07249916796101682 0.07249916796101682 0.08925346184085432 0.07632601343683604 0.08095181593055063 0.05475879744428198 0.05114911500549654 0.06607112823525578 0.06594725881834627 0.06781198155187373 0.1105767156997944 0.07068957059843543 0.1012980853035439 0.09950808063427605 0.08091981463934057 0.08080506967872085 0.08080506967872085 0.08591166263486733 0.07529472081756665 0.08191484442006558 0.05169499284133285 0.07865850634808752 0.07414716497452904 0.09082013882741663 0.06083302837569182 0.07886767101443955 0.08763409735782951 0.07461718298134584 0.07249916796101682 0.07058799085277213 0.08763409735782951 0.1001618434791039 0.06159936240846797 0.08763409735782951 0.09995416556747616 0.08626490687984813 0.07529472081756665 0.05662514571520226 0.05114911500549654 0.05662514571520226 0.07855451784462281 0.07292651450022229 0.07058799085277213 0.07004974899372816 0.09995416556747616 0.1125280927776833 0.06727402908213864 0.09995416556747616 0.1132431499513124 0.09299801854056555 0.07973867504917914 0.08091981463934057 0.05376250550520784 0.09289207494971904 0.08080506967872085 0.05286102746312018 0.05376250550520784 0.05801352115923681 0.05035267261214019 0.05376250550520784 0.07457505284926905 0.08244900136695403 0.08244900136695403 0.05710857799810765 0.05286102746312018 0.06761338413025152 0.07457505284926905 0.07619081362754704 0.07000344507832922 0.07457505284926905 0.1105767156997944 0.09082013882741663 0.08095181593055063 0.06594681948441071 0.09660637734210713 0.08626490687984813 0.05935632786863018 0.05662514571520226 0.05609786668952365 0.07058799085277213 0.0787546068024523 0.06926199950635947 0.0694203220567103 0.06761338413025152 0.1081499646545748 0.1105767156997944 0.09299801854056555 0.08191484442006558 0.09198873677825758 0.057380069762064 0.09427205338279777 0.08244900136695403 0.05475879744428198 0.05286102746312018 0.05161956562437665 0.08522667936231855 0.07570546060045236 0.09082013882741663 0.07461718298134584 0.07461718298134584 0.1016292821562211 0.08647231834271489 0.08402717297879363 0.05874207486214694 0.05475879744428198 0.06781930358603507 0.06761338413025152 0.07013170188714066 0.122018894067462 0.07532634126046506 0.1137466612091882 0.1105767156997944 0.09299801854056555 0.09289207494971904 0.09289207494971904 0.08969595189155567 0.08626490687984813 0.09389693050551172 0.05528122511384223 0.08239681211800601 0.0785190295495197 0.1033476210758311 0.06594681948441071 0.09082013882741663 0.1001618434791039 0.07695311972406904 0.07461718298134584 0.07292651450022229 0.1001618434791039 0.1131300484580279 0.06642673547924269 0.1001618434791039 0.1125280927776833 0.09777462463415872 0.08626490687984813 0.05935632786863018 0.05475879744428198 0.05935632786863018 0.08218965389143441 0.0754850572065508 0.07292651450022229 0.0724835117846712 0.1125280927776833 0.1254883933940195 0.07209331487632142 0.1125280927776833 0.1255221205369331 0.1056439633056943 0.09198873677825758 0.09299801854056555 0.05801352115923681 0.1055056217776369 0.09289207494971904 0.05710857799810765 0.05801352115923681 0.06267227200818723 0.05404697322350597 0.05801352115923681 0.07619081362754704 0.09427205338279777 0.09427205338279777 0.06173773219485787 0.05710857799810765 0.0694203220567103 0.07619081362754704 0.07784195722076866 0.07236728982270603 0.07619081362754704 0.122018894067462 0.1033476210758311 0.08402717297879363 0.07137687713409628 0.1088243022597369 0.09777462463415872 0.06234190539205497 0.05935632786863018 0.05941336738744427 0.07292651450022229 0.08238944103154386 0.07482442843701587 0.07137401983401238 0.0694203220567103 0.1203687874331687 0.122018894067462 0.1056439633056943 0.09389693050551172 0.104745498897366 0.06136032835578593 0.1065906069358638 0.09427205338279777 0.05874207486214694 0.05710857799810765 0.05504489685270812 0.08910687788826741 0.0779345084667923 0.1033476210758311 0.07695311972406904 0.07695311972406904 0.114454410284694 0.09717407874106798 0.08715506755819695 0.06305732077055022 0.05874207486214694 0.06973039984196648 0.0694203220567103 0.0726815898646922 0.1337823257795652 0.08016694652486125 0.1265841577440682 0.122018894067462 0.1056439633056943 0.1055056217776369 0.1055056217776369 0.09361861512314372 0.09777462463415872 0.1063607690373752 0.05921826732733956 0.0863131272407488 0.08301699004565043 0.1163498249376208 0.07137687713409628 0.1033476210758311 0.1131300484580279 0.07949390509070946 0.07695311972406904 0.0754850572065508 0.1131300484580279 0.1264868994602789 0.07150829191825089 0.1131300484580279 0.1254883933940195 0.1097343414432817 0.09777462463415872 0.06234190539205497 0.05874207486214694 0.06234190539205497 0.08598018663728625 0.07825918532575778 0.0754850572065508 0.07512131523829989 0.1254883933940195 0.1387995438905053 0.07712358305675371 0.1254883933940195 0.1381099240408473 0.1187728512759461 0.104745498897366 0.1056439633056943 0.06267227200818723 0.1185866606749376 0.1055056217776369 0.06173773219485787 0.06267227200818723 0.06767948445279065 0.05810294288906262 0.06267227200818723 0.07784195722076866 0.1065906069358638 0.1065906069358638 0.06670415037434532 0.06173773219485787 0.07137401983401238 0.07784195722076866 0.07950606496597014 0.07492127366090397 0.07784195722076866 0.1337823257795652 0.1163498249376208 0.08715506755819695 0.07707957658260225 0.1214393160555838 0.1097343414432817 0.06555244147000332 0.06234190539205497 0.06302545991784678 0.0754850572065508 0.08617163077773052 0.08063080194464381 0.07348260655567808 0.07137401983401238 0.1329439618781373 0.1337823257795652 0.1187728512759461 0.1063607690373752 0.1179543220589706 0.06566272303013135 0.1193506864771437 0.1065906069358638 0.06305732077055022 0.06173773219485787 0.05878767723364872 0.09313022861227888 0.08024737550695003 0.1163498249376208 0.07949390509070946 0.07949390509070946 0.1276709804671792 0.1083386046608414 0.09031508853723717 0.06766740679367358 0.06305732077055022 0.07180869546880685 0.07137401983401238 0.07546026818391804 0.1458243516719286 0.08520262803904503 0.1397730163490887 0.1337823257795652 0.1187728512759461 0.1185866606749376 0.1185866606749376 0.09764959723373666 0.1097343414432817 0.1192553356326779 0.06347374409159669 0.09040089630614137 0.08761317671872007 0.1297510304544639 0.07707957658260225 0.1163498249376208 0.1264868994602789 0.08222129869993799 0.07949390509070946 0.07825918532575778 0.1264868994602789 0.1401930889600656 0.07682587768876882 0.1264868994602789 0.1387995438905053 0.1220823033355736 0.1097343414432817 0.06555244147000332 0.06305732077055022 0.06555244147000332 0.08992016981536177 0.08124420620539331 0.07825918532575778 0.07796549190534595 0.1387995438905053 0.1524329415803501 0.08235673832376378 0.1387995438905053 0.1509664017167839 0.1323251772224056 0.1179543220589706 0.1187728512759461 0.06767948445279065 0.132100014387221 0.1185866606749376 0.06670415037434532 0.06767948445279065 0.07297982225580525 0.06248392496491351 0.06767948445279065 0.07950606496597014 0.1193506864771437 0.1193506864771437 0.07196911032631875 0.06670415037434532 0.07348260655567808 0.07950606496597014 0.08115273036550162 0.07766615815206737 0.07950606496597014 0.1458243516719286 0.1297510304544639 0.09031508853723717 0.0830131004438005 0.1344122689125105 0.1220823033355736 0.06895642722460489 0.06555244147000332 0.06690965868351113 0.07825918532575778 0.09009452770000281 0.08665876493330479 0.07575676179804218 0.07348260655567808 0.1458514772012539 0.1458243516719286 0.1323251772224056 0.1192553356326779 0.1315831415225868 0.07024214500112201 0.1325200370223182 0.1193506864771437 0.06766740679367358 0.06670415037434532 0.06281855965010008 0.09728069610795843 0.08261827549701836 0.1297510304544639 0.08222129869993799 0.08222129869993799 0.1412327961959944 0.1199000309639898 0.09348065008072907 0.07253895871339852 0.06766740679367358 0.07405964006562947 0.07348260655567808 0.07846655165031217 0.1581081893557509 0.09042854778060243 0.1532830540014665 0.1458243516719286 0.1323251772224056 0.132100014387221 0.132100014387221 0.1017503483903866 0.1220823033355736 0.1325493117418466 0.06801967500372186 0.09465374643359942 0.09227494564232193 0.1434858381151616 0.0830131004438005 0.1297510304544639 0.1401930889600656 0.08511113462822488 0.08222129869993799 0.08124420620539331 0.1401930889600656 0.1542145875818769 0.08236614278890961 0.1401930889600656 0.1524329415803501 0.134772385899993 0.1220823033355736 0.06895642722460489 0.06766740679367358 0.06895642722460489 0.09400362298021052 0.0844352006607272 0.08124420620539331 0.08101962005166877 0.1524329415803501 0.1663612974602715 0.08778903428643096 0.1524329415803501 0.1640552254619384 0.1462551278898865 0.1315831415225868 0.1323251772224056 0.07297982225580525 0.1460253998666792 0.132100014387221 0.07196911032631875 0.07297982225580525 0.07852022570923853 0.06715830420010911 0.07297982225580525 0.08115273036550162 0.1325200370223182 0.1325200370223182 0.07749735656494006 0.07196911032631875 0.07575676179804218 0.08115273036550162 0.08274037446692026 0.08060408461859354 0.08115273036550162 0.1581081893557509 0.1434858381151616 0.09348065008072907 0.08913465538444255 0.1477118639944344 0.134772385899993 0.07251971181678631 0.06895642722460489 0.07104376937930386 0.08124420620539331 0.09415145746839967 0.09288660127504024 0.07820937278895869 0.07575676179804218 0.1590724529994528 0.1581081893557509 0.1462551278898865 0.1325493117418466 0.1456140159255379 0.07505367821376034 0.1460801772817879 0.1325200370223182 0.07253895871339852 0.07196911032631875 0.06711159560917768 0.1015394449911147 0.08501162902883981 0.1434858381151616 0.08511113462822488 0.08511113462822488 0.1550967243334041 0.1318087349529987 0.09661683345581586 0.07764077904691447 0.07253895871339852 0.07649009513042342 0.07575676179804218 0.08169892952662523 0.1706007249808691 0.0958425780925857 0.1670858860747474 0.1581081893557509 0.1462551278898865 0.1460253998666792 0.1460253998666792 0.1058707281956025 0.134772385899993 0.1462228159004114 0.07283209049328093 0.09906468274368004 0.0969612696927334 0.1574892509969656 0.08913465538444255 0.1434858381151616 0.1542145875818769 0.08813232585670788 0.08511113462822488 0.0844352006607272 0.1542145875818769 0.1685173221473143 0.08811973334215162 0.1542145875818769 0.1663612974602715 0.1477660792287525 0.134772385899993 0.07251971181678631 0.07253895871339852 0.07251971181678631 0.09822338179988471 0.08782613359498155 0.0844352006607272 0.08428719217433717 0.1663612974602715 0.1805525789398474 0.09341985361050405 0.1663612974602715 0.1773413037788048 0.1605230549350197 0.1456140159255379 0.1462551278898865 0.07852022570923853 0.1603516289285025 0.1460253998666792 0.07749735656494006 0.07852022570923853 0.08424748592530115 0.07209895731289565 0.07852022570923853 0.08274037446692026 0.1460801772817879 0.1460801772817879 0.08325361145998929 0.07749735656494006 0.07820937278895869 0.08274037446692026 0.08421146953252864 0.08373796155443596 0.08274037446692026 0.1706007249808691 0.1574892509969656 0.09661683345581586 0.09539736918588217 0.161309726605931 0.1477660792287525 0.07620452040225811 0.07251971181678631 0.07540762400394208 0.0844352006607272 0.09833487861975251 0.0992891196089096 0.08085326632730397 0.07820937278895869 0.1725887911474066 0.1706007249808691 0.1605230549350197 0.1462228159004114 0.1600380266145052 0.08005114512670772 0.1600209618437688 0.1460801772817879 0.07764077904691447 0.07749735656494006 0.07164360009347223 0.1058830965447976 0.08737695288268259 0.1574892509969656 0.08813232585670788 0.08813232585670788 0.1692151301259698 0.1440241283966804 0.09967771687463776 0.08294128314974517 0.07764077904691447 0.07910781072325529 0.07820937278895869 0.08515347175962369 0.183271392499777 0.1014415665040811 0.1811488883551267 0.1706007249808691 0.1605230549350197 0.1603516289285025 0.1603516289285025 0.1099447312265646 0.1477660792287525 0.1602611809354525 0.07788966160275199 0.103624224575067 0.1016166461377495 0.1716889390274487 0.09539736918588217 0.1574892509969656 0.1685173221473143 0.09124552658326747 0.08813232585670788 0.08782613359498155 0.1685173221473143 0.1830623777395167 0.09407977189298404 0.1685173221473143 0.1805525789398474 0.1610263123878024 0.1477660792287525 0.07620452040225811 0.07764077904691447 0.07620452040225811 0.1025685563442764 0.09140667014820976 0.08782613359498155 0.08776746539790675 0.1805525789398474 0.1949613843459754 0.099248241848922 0.1805525789398474 0.1907890252076982 0.1750899467223378 0.1600380266145052 0.1605230549350197 0.08424748592530115 0.1750716144673083 0.1603516289285025 0.08325361145998929 0.08424748592530115 0.09010499813611263 0.07728182175588867 0.08424748592530115 0.08421146953252864 0.1600209618437688 0.1600209618437688 0.08919671316138417 0.08325361145998929 0.08085326632730397 0.08421146953252864 0.08548502652692724 0.08706885246825304 0.08421146953252864 0.183271392499777 0.1716889390274487 0.09967771687463776 0.1017467701101254 0.1751761605958927 0.1610263123878024 0.07996801822180309 0.07620452040225811 0.07998195517372328 0.08782613359498155 0.1026345419189945 0.1058301418864431 0.08369419074103299 0.08085326632730397 0.1863772273333366 0.183271392499777 0.1750899467223378 0.1602611809354525 0.1748513493120186 0.08518454811817723 0.1743353616466002 0.1600209618437688 0.08294128314974517 0.08325361145998929 0.0763925518759611 0.1102801502781173 0.0896402221302381 0.1716889390274487 0.09124552658326747 0.09124552658326747 0.1835273772879056 0.1565092115656096 0.1026031072016062 0.08840414649437675 0.08294128314974517 0.08191885516643339 0.08085326632730397 0.0888183133688619 0.1960915672747037 0.1072110892444613 0.1954264145215932 0.183271392499777 0.1750899467223378 0.1750716144673083 0.1750716144673083 0.1138844036295455 0.1610263123878024 0.1746482263325304 0.08317048097285125 0.1083161742449557 0.1061598535254264 0.1859989765296116 0.1017467701101254 0.1716889390274487 0.1830623777395167 0.09440106981029703 0.09124552658326747 0.09140667014820976 0.1830623777395167 0.1978007485146714 0.1002381381817732 0.1830623777395167 0.1949613843459754 0.174511418398962 0.1610263123878024 0.07996801822180309 0.08294128314974517 0.07996801822180309 0.1070189699844207 0.09515352946730965 0.09140667014820976 0.09144496504912623 0.1949613843459754 0.2095144538140875 0.1052634620871779 0.1949613843459754 0.2043605539296738 0.1899127760003247 0.1748513493120186 0.1750899467223378 0.09010499813611263 0.1901758739442484 0.1750716144673083 0.08919671316138417 0.09010499813611263 0.09602786605853901 0.08268288195767223 0.09010499813611263 0.08548502652692724 0.1743353616466002 0.1743353616466002 0.09526875710069556 0.08919671316138417 0.08369419074103299 0.08548502652692724 0.08644410883086859 0.09058840737257634 0.08548502652692724 0.1960915672747037 0.1859989765296116 0.1026031072016062 0.1081164867665571 0.1892754495164021 0.174511418398962 0.08376011084117854 0.07996801822180309 0.08474546912817016 0.09140667014820976 0.1070333643602287 0.1124475095646342 0.08671247211066616 0.08369419074103299 0.2003989722781252 0.1960915672747037 0.1899127760003247 0.1746482263325304 0.1900506154022971 0.09039527190296696 0.1890118671072507 0.1743353616466002 0.08840414649437675 0.08919671316138417 0.0813341718903331 0.1146830059108686 0.09168845652098889 0.1859989765296116 0.09440106981029703 0.09440106981029703 0.1979483901683191 0.1692255618143959 0.1053144506838408 0.09398000394812792 0.08840414649437675 0.0849200186674498 0.08369419074103299 0.09266083965209 0.2090333481730272 0.1130992441193538 0.2098443575735684 0.1960915672747037 0.1899127760003247 0.1901758739442484 0.1901758739442484 0.1175706520720015 0.174511418398962 0.1893560282841054 0.08864457166341827 0.1131080576254613 0.1104616968793356 0.2003158662866148 0.1081164867665571 0.1859989765296116 0.1978007485146714 0.09753482125340666 0.09440106981029703 0.09515352946730965 0.1978007485146714 0.2126666885117932 0.106575864027966 0.1978007485146714 0.2095144538140875 0.1881673973275694 0.174511418398962 0.08376011084117854 0.08840414649437675 0.08376011084117854 0.1115330831461807 0.09900910924402724 0.09515352946730965 0.09526482735172158 0.2095144538140875 0.2240844052717295 0.1114204738764159 0.2095144538140875 0.2180123432137915 0.2049402050915329 0.1900506154022971 0.1899127760003247 0.09602786605853901 0.2056410125757787 0.1901758739442484 0.09526875710069556 0.09602786605853901 0.101933824251526 0.08827139083976294 0.09602786605853901 0.08644410883086859 0.1890118671072507 0.1890118671072507 0.1013732727124252 0.09526875710069556 0.08671247211066616 0.08644410883086859 0.08691412822543422 0.09425912693464808 0.08644410883086859 0.2090333481730272 0.2003158662866148 0.1053144506838408 0.1144219247398799 0.2035593127370366 0.1881673973275694 0.08751943575658441 0.08376011084117854 0.08966765161614958 0.09515352946730965 0.111498082620215 0.1190215491700398 0.08981788899068334 0.08671247211066616 0.2145797749396709 0.2090333481730272 0.2049402050915329 0.1893560282841054 0.2056247856108113 0.09560583815017364 0.2040202470791036 0.1890118671072507 0.09398000394812792 0.09526875710069556 0.08643437640891415 0.1190093068952286 0.09334076550022148 0.2003158662866148 0.09753482125340666 0.09753482125340666 0.2123517587663762 0.1821272047203071 0.1077091988562867 0.09958893673510326 0.09398000394812792 0.08807930627028104 0.08671247211066616 0.09659938448875435 0.2220663235435354 0.1189522793229611 0.2242702664230373 0.2090333481730272 0.2049402050915329 0.2056410125757787 0.2056410125757787 0.12083803146041 0.1881673973275694 0.2043262814754604 0.09425617740904058 0.1179295260439426 0.1142989431501746 0.2145200817265951 0.1144219247398799 0.2003158662866148 0.2126666885117932 0.1005575372217717 0.09753482125340666 0.09900910924402724 0.2126666885117932 0.2275683189311999 0.1130386366198192 0.2126666885117932 0.2240844052717295 0.2019154738190693 0.1881673973275694 0.08751943575658441 0.09398000394812792 0.08751943575658441 0.1160219984254036 0.1028306864113756 0.09900910924402724 0.09907650703357022 0.2240844052717295 0.2384410449562169 0.1175782416980434 0.2240844052717295 0.2316858356706682 0.220108634554905 0.2056247856108113 0.2049402050915329 0.101933824251526 0.2214062968570159 0.2056410125757787 0.1013732727124252 0.101933824251526 0.1077031083229627 0.09399370265784185 0.101933824251526 0.08691412822543422 0.2040202470791036 0.2040202470791036 0.10732905363712 0.1013732727124252 0.08981788899068334 0.08691412822543422 0.08662519961426603 0.09796473215923927 0.08691412822543422 0.2220663235435354 0.2145200817265951 0.1077091988562867 0.1205476046102896 0.2179563073923414 0.2019154738190693 0.0911646486082487 0.08751943575658441 0.0946913709401956 0.09900910924402724 0.1159580841234425 0.1253062894357929 0.09274094528105101 0.08981788899068334 0.2287710515749389 0.2220663235435354 0.220108634554905 0.2043262814754604 0.2215376921739841 0.1006959918313478 0.21928244773277 0.2040202470791036 0.09958893673510326 0.1013732727124252 0.09163204466510241 0.123097346422568 0.09429241021186695 0.2145200817265951 0.1005575372217717 0.1005575372217717 0.2265441809748705 0.1951506952474645 0.109651396704422 0.1050812706255598 0.09958893673510326 0.09128854523087722 0.08981788899068334 0.1004419823863281 0.2351575886378597 0.1243601242717318 0.2384530802550022 0.2220663235435354 0.220108634554905 0.2214062968570159 0.2214062968570159 0.1234466377311876 0.2019154738190693 0.2194340909522974 0.09988184055632901 0.1226234658995578 0.1172573653236555 0.2284907241410088 0.1205476046102896 0.2145200817265951 0.2275683189311999 0.1033243302178647 0.1005575372217717 0.1028306864113756 0.2275683189311999 0.242373035587915 0.1194754986247998 0.2275683189311999 0.2384410449562169 0.2156288351447959 0.2019154738190693 0.0911646486082487 0.09958893673510326 0.0911646486082487 0.1202941832532721 0.1062714977421827 0.1028306864113756 0.1025063098170893 0.2384410449562169 0.2521649278407384 0.1233473201492065 0.2384410449562169 0.2452882787419437 0.235339045768277 0.2215376921739841 0.220108634554905 0.1077031083229627 0.2373235465956699 0.2214062968570159 0.10732905363712 0.1077031083229627 0.1131289338360039 0.09973386949312073 0.1077031083229627 0.08662519961426603 0.21928244773277 0.21928244773277 0.1127696230803051 0.10732905363712 0.09274094528105101 0.08662519961426603 0.08515667820152066 0.101386809178002 0.08662519961426603 0.2351575886378597 0.2284907241410088 0.109651396704422 0.126313456850166 0.2323538746414006 0.2156288351447959 0.09457379137311887 0.0911646486082487 0.09969164090899724 0.1028306864113756 0.1202578579947557 0.1307747050128829 0.09477173105255454 0.09274094528105101 0.2426795007167337 0.2351575886378597 0.235339045768277 0.2194340909522974 0.2376869085026653 0.1054449430849467 0.2346124041756652 0.21928244773277 0.1050812706255598 0.10732905363712 0.09679924549778517 0.1265989745251002 0.09401099522269735 0.2284907241410088 0.1033243302178647 0.1033243302178647 0.240228836336393 0.2081958209114733 0.1109522507451493 0.1101478300149528 0.1050812706255598 0.09425068799642651 0.09274094528105101 0.1037543884030466 0.2483336220346475 0.1282908977289703 0.2519029484499644 0.2351575886378597 0.235339045768277 0.2373235465956699 0.2373235465956699 0.1250246540868384 0.2156288351447959 0.2344167922052167 0.105232095008901 0.1268350733221883 0.1185318856883952 0.2421480332692554 0.126313456850166 0.2284907241410088 0.242373035587915 0.1055454071244094 0.1033243302178647 0.1062714977421827 0.242373035587915 0.2568840179832227 0.1254876587690852 0.242373035587915 0.2521649278407384 0.229085248299145 0.2156288351447959 0.09457379137311887 0.1050812706255598 0.09457379137311887 0.1239399527193427 0.1085026230521653 0.1062714977421827 0.104668278240133 0.2521649278407384 0.2645318434056656 0.1277179094524994 0.2521649278407384 0.258691062764471 0.250535546595757 0.2376869085026653 0.235339045768277 0.1131289338360039 0.2530480795080907 0.2373235465956699 0.1127696230803051 0.1131289338360039 0.1177899841566324 0.1052175932908637 0.1131289338360039 0.08515667820152066 0.2346124041756652 0.2346124041756652 0.1169212997065613 0.1127696230803051 0.09477173105255454 0.08515667820152066 0.08193322849953331 0.10369934311105 0.08515667820152066 0.2483336220346475 0.2421480332692554 0.1109522507451493 0.131370693720649 0.2465729009901742 0.229085248299145 0.09753552925263378 0.09457379137311887 0.1043804973110945 0.1062714977421827 0.1240518163266099 0.1342609604734009 0.09413129308943562 0.09477173105255454 0.255780190092718 0.2483336220346475 0.250535546595757 0.2344167922052167 0.2538011184894863 0.1093928851743063 0.2495944317929386 0.2346124041756652 0.1101478300149528 0.1127696230803051 0.1016502033230483 0.1287253535980571 0.09159683015094254 0.2421480332692554 0.1055454071244094 0.1055454071244094 0.2529663755825975 0.2210848282881553 0.1113250135499406 0.1141151873616754 0.1101478300149528 0.09621326669945922 0.09477173105255454 0.1055739945087 0.2621703869227849 0.1282361587383996 0.2636826440640134 0.2483336220346475 0.250535546595757 0.2530480795080907 0.2530480795080907 0.1249438816969543 0.229085248299145 0.248736777583052 0.1096248935716332 0.1297600072495236 0.116558575753407 0.2555482292031808 0.131370693720649 0.2421480332692554 0.2568840179832227 0.106529673638896 0.1055454071244094 0.1085026230521653 0.2568840179832227 0.270815993810148 0.1300605742696166 0.2568840179832227 0.2645318434056656 0.241867369500699 0.229085248299145 0.09753552925263378 0.1101478300149528 0.09753552925263378 0.1260957045180268 0.1075583892940924 0.1085026230521653 0.1035052994418953 0.2645318434056656 0.2746466677278057 0.1281682363753133 0.2645318434056656 0.2720170579322607 0.265592141211101 0.2538011184894863 0.250535546595757 0.1177899841566324 0.2678027898637567 0.2530480795080907 0.1169212997065613 0.1177899841566324 0.1207208594737798 0.1097809050472243 0.1177899841566324 0.08193322849953331 0.2495944317929386 0.2495944317929386 0.1181140242063891 0.1169212997065613 0.09413129308943562 0.08193322849953331 0.07689199886662171 0.102815872454839 0.08193322849953331 0.2621703869227849 0.2555482292031808 0.1113250135499406 0.1348621963697616 0.2603740347208414 0.241867369500699 0.09964134363499243 0.09753552925263378 0.1080950197687821 0.1085026230521653 0.1265765249590874 0.133120691193975 0.08647000289040874 0.09413129308943562 0.2675004745667718 0.2621703869227849 0.265592141211101 0.248736777583052 0.2691720240251613 0.1115278776554582 0.263354039189439 0.2495944317929386 0.1141151873616754 0.1169212997065613 0.1055372975141792 0.1276672531892519 0.08605070178960349 0.2555482292031808 0.106529673638896 0.106529673638896 0.2642087168136439 0.2334757072305649 0.1102807975772971 0.1154878148324385 0.1141151873616754 0.09533907435714518 0.09413129308943562 0.1037830706169281 0.2806443789354515 0.1182621165476164 0.2722963249331229 0.2621703869227849 0.265592141211101 0.2678027898637567 0.2678027898637567 0.1220605232861429 0.241867369500699 0.2613352848875762 0.1114790276022605 0.1295760536543931 0.1086862992926018 0.2690954979541308 0.1348621963697616 0.2555482292031808 0.270815993810148 0.1044760286549748 0.106529673638896 0.1075583892940924 0.270815993810148 0.2839150687481828 0.1306907452718938 0.270815993810148 0.2746466677278057 0.2531594410319166 0.241867369500699 0.09964134363499243 0.1141151873616754 0.09964134363499243 0.1249755197242196 0.09880535427563082 0.1075583892940924 0.09429354111672296 0.2746466677278057 0.2841052478301715 0.1186582104973412 0.2746466677278057 0.2879381981884067 0.2804994290040694 0.2691720240251613 0.265592141211101 0.1207208594737798 0.279894047615626 0.2678027898637567 0.1181140242063891 0.1207208594737798 0.1196161143752861 0.111827539386835 0.1207208594737798 0.07689199886662171 0.263354039189439 0.263354039189439 0.1127375977689241 0.1181140242063891 0.08647000289040874 0.07689199886662171 0.07598885314667959 0.09356755338080709 0.07689199886662171 0.2806443789354515 0.2690954979541308 0.1102807975772971 0.1342988583748371 0.2737938020787257 0.2531594410319166 0.1000836916769355 0.09964134363499243 0.1093445446191771 0.1075583892940924 0.1261682757101186 0.1213243292720782 0.06167992239355291 0.08647000289040874 0.279901326449954 0.2806443789354515 0.2804994290040694 0.2613352848875762 0.2819328286411714 0.1097192793896754 0.2742084433509036 0.263354039189439 0.1154878148324385 0.1181140242063891 0.1070067727375631 0.1194314041193388 0.08104354883361523 0.2690954979541308 0.1044760286549748 0.1044760286549748 0.2738302029326848 0.244691571830348 0.1069238564497425 0.1109477327840297 0.1154878148324385 0.08725890247807302 0.08647000289040874 0.09374686445227488 0.0853058445250018 0.0853058445250018 0.2778236360167407 0.2806443789354515 0.2804994290040694 0.279894047615626 0.279894047615626 0.1143665045035896 0.2531594410319166 0.2702862424995254 0.1072535664778235 0.1221977649491537 0.09443365501519221 0.2845719438449604 0.1342988583748371 0.2690954979541308 0.2839150687481828 0.09475293426058674 0.1044760286549748 0.09880535427563082 0.2839150687481828 0.2973982652532068 0.1214822749104387 0.2839150687481828 0.2841052478301715 0.2613984249955554 0.2531594410319166 0.1000836916769355 0.1154878148324385 0.1000836916769355 0.1169532771226608 0.07194434197469249 0.09880535427563082 0.0666073527568718 0.2841052478301715 0.08673630730839051 0.08717461978980605 0.2841052478301715 0.0853058445250018 0.2966438076466856 0.2819328286411714 0.2804994290040694 0.1196161143752861 0.2859119709990841 0.279894047615626 0.1127375977689241 0.1196161143752861 0.109704721203296 0.1076282738013719 0.1196161143752861 0.07598885314667959 0.2742084433509036 0.2742084433509036 0.09333636179862975 0.1127375977689241 0.06167992239355291 0.07598885314667959 0.09677429404797946 0.06385917781419592 0.07598885314667959 0.0853058445250018 0.2845719438449604 0.1069238564497425 0.1219457080025073 0.2895006900123521 0.2613984249955554 0.09746218394969956 0.1000836916769355 0.1048892517963471 0.09880535427563082 0.1192493356435023 0.08673630730839051 0.09469002774409511 0.06167992239355291 0.08673630730839051 0.0853058445250018 0.2966438076466856 0.2702862424995254 0.2871836227886144 0.1009544089343883 0.2795882559074657 0.2742084433509036 0.1109477327840297 0.1127375977689241 0.1028557028836873 0.09677429404797946 0.09677429404797946 0.2845719438449604 0.09475293426058674 0.09475293426058674 0.2852897560213142 0.2534745577675849 0.09983640668632679 0.09317137187597375 0.1109477327840297 0.06252903733202823 0.06167992239355291 0.06602353011106761 0.2966438076466856 0.2859119709990841 0.2859119709990841 0.1005689061699128 0.2613984249955554 0.2728526057302062 0.08966780522973024 0.09889641720052439 0.3162924404213721 0.1219457080025073 0.2845719438449604 0.2973982652532068 0.07059192033132312 0.09475293426058674 0.07194434197469249 0.2973982652532068 0.07863641924515918 0.09114857701545045 0.2973982652532068 0.08673630730839051 0.2641035920054919 0.2613984249955554 0.09746218394969956 0.1109477327840297 0.09746218394969956 0.09469002774409511 0.09013126215859445 0.07194434197469249 0.09469002774409511 0.08673630730839051 0.3309354488900175 0.2871836227886144 0.2966438076466856 0.109704721203296 0.2809156654146234 0.2859119709990841 0.09333636179862975 0.109704721203296 0.2745069936038025 0.08909192624495167 0.109704721203296 0.09677429404797946 0.2795882559074657 0.2795882559074657 0.2695225921477859 0.09333636179862975 0.09469002774409511 0.09677429404797946 0.3162924404213721 0.09983640668632679 0.07863641924515918 0.07863641924515918 0.2641035920054919 0.09083767384434338 0.09746218394969956 0.08797071979435811 0.07194434197469249 0.09814907326779342 0.3309354488900175 0.2728526057302062 0.2745069936038025 0.2745069936038025 0.2792957471718489 0.2795882559074657 0.09317137187597375 0.09333636179862975 0.08614876899964463 0.3162924404213721 0.07059192033132312 0.07059192033132312 0.2581758443608655 0.09013126215859445 0.2610593639511176 0.09317137187597375 0.09013126215859445 0.09469002774409511 0.3309354488900175 0.2809156654146234 0.2809156654146234 0.2641035920054919 0.2695225921477859 0.2695225921477859 0.07863641924515918 0.07863641924515918 0.3162924404213721 0.07863641924515918 0.09013126215859445 0.07059192033132312 0.09013126215859445 0.07863641924515918 0.2610593639511176 0.2641035920054919 0.09083767384434338 0.09317137187597375 0.09083767384434338 0.2745069936038025 0.2745069936038025 0.3309354488900175 0.2745069936038025 0.2695225921477859 0.2809156654146234 0.2695225921477859 0.2745069936038025 0.2792957471718489 0.2792957471718489 0.07863641924515918 0.09013126215859445 0.2610593639511176 0.2610593639511176 0.09083767384434338 0.2610593639511176 0.09013126215859445 0.2745069936038025 0.2695225921477859 0.2610593639511176 0.2792957471718489 0.2610593639511176 0.2695225921477859 0.09013126215859445 0.2610593639511176 0.2695225921477859 0.2610593639511176 0.2610593639511176 0.2610593639511176 0.2610593639511176 0.2610593639511176 0.2610593639511176 </DataArray>
      </PointData>
    </Piece>
  </UnstructuredGrid>
</VTKFile>
