<?xml version="1.0"?>
<VTKFile type="UnstructuredGrid" version="2.2">
  <UnstructuredGrid>
    <Piece NumberOfPoints="396" NumberOfCells="250">
      <Points>
        <DataArray type="Float64" NumberOfComponents="3" format="ascii">-1.110223024625157e-17 -4.440892098500625e-18 1.665334536937735e-18 0.09999999999999995 -4.440892098500625e-18 1.665334536937735e-18 -1.110223024625157e-17 0.03999999999999998 1.665334536937735e-18 0.09999999999999995 0.03999999999999998 1.665334536937735e-18 -1.110223024625157e-17 -4.440892098500625e-18 0.03999999999999998 0.09999999999999995 -4.440892098500625e-18 0.03999999999999998 -1.110223024625157e-17 0.03999999999999998 0.03999999999999998 0.09999999999999995 0.03999999999999998 0.03999999999999998 0.1999999999999999 -4.440892098500625e-18 1.665334536937735e-18 0.1999999999999999 0.03999999999999998 1.665334536937735e-18 0.1999999999999999 -4.440892098500625e-18 0.03999999999999998 0.1999999999999999 0.03999999999999998 0.03999999999999998 -1.110223024625157e-17 0.07999999999999996 1.665334536937735e-18 0.09999999999999995 0.07999999999999996 1.665334536937735e-18 -1.110223024625157e-17 0.07999999999999996 0.03999999999999998 0.09999999999999995 0.07999999999999996 0.03999999999999998 -1.110223024625157e-17 -4.440892098500625e-18 0.07999999999999996 0.09999999999999995 -4.440892098500625e-18 0.07999999999999996 -1.110223024625157e-17 0.03999999999999998 0.07999999999999996 0.09999999999999995 0.03999999999999998 0.07999999999999996 0.2999999999999999 -4.440892098500625e-18 1.665334536937735e-18 0.2999999999999999 0.03999999999999998 1.665334536937735e-18 0.2999999999999999 -4.440892098500625e-18 0.03999999999999998 0.2999999999999999 0.03999999999999998 0.03999999999999998 0.1999999999999999 0.07999999999999996 1.665334536937735e-18 0.1999999999999999 0.07999999999999996 0.03999999999999998 0.1999999999999999 -4.440892098500625e-18 0.07999999999999996 0.1999999999999999 0.03999999999999998 0.07999999999999996 -1.110223024625157e-17 0.12 1.665334536937735e-18 0.09999999999999995 0.12 1.665334536937735e-18 -1.110223024625157e-17 0.12 0.03999999999999998 0.09999999999999995 0.12 0.03999999999999998 -1.110223024625157e-17 0.07999999999999996 0.07999999999999996 0.09999999999999995 0.07999999999999996 0.07999999999999996 -1.110223024625157e-17 -4.440892098500625e-18 0.12 0.09999999999999995 -4.440892098500625e-18 0.12 -1.110223024625157e-17 0.03999999999999998 0.12 0.09999999999999995 0.03999999999999998 0.12 0.3999999999999999 -4.440892098500625e-18 1.665334536937735e-18 0.3999999999999999 0.03999999999999998 1.665334536937735e-18 0.3999999999999999 -4.440892098500625e-18 0.03999999999999998 0.3999999999999999 0.03999999999999998 0.03999999999999998 0.2999999999999999 0.07999999999999996 1.665334536937735e-18 0.2999999999999999 0.07999999999999996 0.03999999999999998 0.2999999999999999 -4.440892098500625e-18 0.07999999999999996 0.2999999999999999 0.03999999999999998 0.07999999999999996 0.1999999999999999 0.12 1.665334536937735e-18 0.1999999999999999 0.12 0.03999999999999998 0.1999999999999999 0.07999999999999996 0.07999999999999996 0.1999999999999999 -4.440892098500625e-18 0.12 0.1999999999999999 0.03999999999999998 0.12 -1.110223024625157e-17 0.1599999999999999 1.665334536937735e-18 0.09999999999999995 0.1599999999999999 1.665334536937735e-18 -1.110223024625157e-17 0.1599999999999999 0.03999999999999998 0.09999999999999995 0.1599999999999999 0.03999999999999998 -1.110223024625157e-17 0.12 0.07999999999999996 0.09999999999999995 0.12 0.07999999999999996 -1.110223024625157e-17 0.07999999999999996 0.12 0.09999999999999995 0.07999999999999996 0.12 -1.110223024625157e-17 -4.440892098500625e-18 0.1599999999999999 0.09999999999999995 -4.440892098500625e-18 0.1599999999999999 -1.110223024625157e-17 0.03999999999999998 0.1599999999999999 0.09999999999999995 0.03999999999999998 0.1599999999999999 0.4999999999999998 -4.440892098500625e-18 1.665334536937735e-18 0.4999999999999998 0.03999999999999998 1.665334536937735e-18 0.4999999999999998 -4.440892098500625e-18 0.03999999999999998 0.4999999999999998 0.03999999999999998 0.03999999999999998 0.3999999999999999 0.07999999999999996 1.665334536937735e-18 0.3999999999999999 0.07999999999999996 0.03999999999999998 0.3999999999999999 -4.440892098500625e-18 0.07999999999999996 0.3999999999999999 0.03999999999999998 0.07999999999999996 0.2999999999999999 0.12 1.665334536937735e-18 0.2999999999999999 0.12 0.03999999999999998 0.2999999999999999 0.07999999999999996 0.07999999999999996 0.2999999999999999 -4.440892098500625e-18 0.12 0.2999999999999999 0.03999999999999998 0.12 0.1999999999999999 0.1599999999999999 1.665334536937735e-18 0.1999999999999999 0.1599999999999999 0.03999999999999998 0.1999999999999999 0.12 0.07999999999999996 0.1999999999999999 0.07999999999999996 0.12 0.1999999999999999 -4.440892098500625e-18 0.1599999999999999 0.1999999999999999 0.03999999999999998 0.1599999999999999 2.220446049250313e-17 0.2 4.996003610813205e-18 0.1 0.2 4.996003610813205e-18 2.220446049250313e-17 0.2 0.04000000000000001 0.1 0.2 0.04000000000000001 -1.110223024625157e-17 0.1599999999999999 0.07999999999999996 0.09999999999999995 0.1599999999999999 0.07999999999999996 -1.110223024625157e-17 0.12 0.12 0.09999999999999995 0.12 0.12 -1.110223024625157e-17 0.07999999999999996 0.1599999999999999 0.09999999999999995 0.07999999999999996 0.1599999999999999 2.359223927328458e-17 9.436895709313831e-18 0.2000000000000001 0.1000000000000001 9.436895709313831e-18 0.2000000000000001 2.359223927328458e-17 0.04000000000000003 0.2000000000000001 0.1000000000000001 0.04000000000000003 0.2000000000000001 0.5999999999999998 -4.440892098500625e-18 1.665334536937735e-18 0.5999999999999998 0.03999999999999998 1.665334536937735e-18 0.5999999999999998 -4.440892098500625e-18 0.03999999999999998 0.5999999999999998 0.03999999999999998 0.03999999999999998 0.4999999999999998 0.07999999999999996 1.665334536937735e-18 0.4999999999999998 0.07999999999999996 0.03999999999999998 0.4999999999999998 -4.440892098500625e-18 0.07999999999999996 0.4999999999999998 0.03999999999999998 0.07999999999999996 0.3999999999999999 0.12 1.665334536937735e-18 0.3999999999999999 0.12 0.03999999999999998 0.3999999999999999 0.07999999999999996 0.07999999999999996 0.3999999999999999 -4.440892098500625e-18 0.12 0.3999999999999999 0.03999999999999998 0.12 0.2999999999999999 0.1599999999999999 1.665334536937735e-18 0.2999999999999999 0.1599999999999999 0.03999999999999998 0.2999999999999999 0.12 0.07999999999999996 0.2999999999999999 0.07999999999999996 0.12 0.2999999999999999 -4.440892098500625e-18 0.1599999999999999 0.2999999999999999 0.03999999999999998 0.1599999999999999 0.2000000000000001 0.2 4.996003610813205e-18 0.2000000000000001 0.2 0.04000000000000001 0.1999999999999999 0.1599999999999999 0.07999999999999996 0.1999999999999999 0.12 0.12 0.1999999999999999 0.07999999999999996 0.1599999999999999 0.2000000000000001 9.436895709313831e-18 0.2000000000000001 0.2000000000000001 0.04000000000000003 0.2000000000000001 2.220446049250313e-17 0.2 0.08000000000000003 0.1 0.2 0.08000000000000003 -1.110223024625157e-17 0.1599999999999999 0.12 0.09999999999999995 0.1599999999999999 0.12 -1.110223024625157e-17 0.12 0.1599999999999999 0.09999999999999995 0.12 0.1599999999999999 2.359223927328458e-17 0.08000000000000004 0.2000000000000001 0.1000000000000001 0.08000000000000004 0.2000000000000001 0.6999999999999997 -4.440892098500625e-18 1.665334536937735e-18 0.6999999999999997 0.03999999999999998 1.665334536937735e-18 0.6999999999999997 -4.440892098500625e-18 0.03999999999999998 0.6999999999999997 0.03999999999999998 0.03999999999999998 0.5999999999999998 0.07999999999999996 1.665334536937735e-18 0.5999999999999998 0.07999999999999996 0.03999999999999998 0.5999999999999998 -4.440892098500625e-18 0.07999999999999996 0.5999999999999998 0.03999999999999998 0.07999999999999996 0.4999999999999998 0.12 1.665334536937735e-18 0.4999999999999998 0.12 0.03999999999999998 0.4999999999999998 0.07999999999999996 0.07999999999999996 0.4999999999999998 -4.440892098500625e-18 0.12 0.4999999999999998 0.03999999999999998 0.12 0.3999999999999999 0.1599999999999999 1.665334536937735e-18 0.3999999999999999 0.1599999999999999 0.03999999999999998 0.3999999999999999 0.12 0.07999999999999996 0.3999999999999999 0.07999999999999996 0.12 0.3999999999999999 -4.440892098500625e-18 0.1599999999999999 0.3999999999999999 0.03999999999999998 0.1599999999999999 0.3000000000000002 0.2 4.996003610813205e-18 0.3000000000000002 0.2 0.04000000000000001 0.2999999999999999 0.1599999999999999 0.07999999999999996 0.2999999999999999 0.12 0.12 0.2999999999999999 0.07999999999999996 0.1599999999999999 0.3000000000000002 9.436895709313831e-18 0.2000000000000001 0.3000000000000002 0.04000000000000003 0.2000000000000001 0.2000000000000001 0.2 0.08000000000000003 0.1999999999999999 0.1599999999999999 0.12 0.1999999999999999 0.12 0.1599999999999999 0.2000000000000001 0.08000000000000004 0.2000000000000001 2.220446049250313e-17 0.2 0.12 0.1 0.2 0.12 -1.110223024625157e-17 0.1599999999999999 0.1599999999999999 0.09999999999999995 0.1599999999999999 0.1599999999999999 2.359223927328458e-17 0.1200000000000001 0.2000000000000001 0.1000000000000001 0.1200000000000001 0.2000000000000001 0.7999999999999997 -4.440892098500625e-18 1.665334536937735e-18 0.7999999999999997 0.03999999999999998 1.665334536937735e-18 0.7999999999999997 -4.440892098500625e-18 0.03999999999999998 0.7999999999999997 0.03999999999999998 0.03999999999999998 0.6999999999999997 0.07999999999999996 1.665334536937735e-18 0.6999999999999997 0.07999999999999996 0.03999999999999998 0.6999999999999997 -4.440892098500625e-18 0.07999999999999996 0.6999999999999997 0.03999999999999998 0.07999999999999996 0.5999999999999998 0.12 1.665334536937735e-18 0.5999999999999998 0.12 0.03999999999999998 0.5999999999999998 0.07999999999999996 0.07999999999999996 0.5999999999999998 -4.440892098500625e-18 0.12 0.5999999999999998 0.03999999999999998 0.12 0.4999999999999998 0.1599999999999999 1.665334536937735e-18 0.4999999999999998 0.1599999999999999 0.03999999999999998 0.4999999999999998 0.12 0.07999999999999996 0.4999999999999998 0.07999999999999996 0.12 0.4999999999999998 -4.440892098500625e-18 0.1599999999999999 0.4999999999999998 0.03999999999999998 0.1599999999999999 0.4000000000000002 0.2 4.996003610813205e-18 0.4000000000000002 0.2 0.04000000000000001 0.3999999999999999 0.1599999999999999 0.07999999999999996 0.3999999999999999 0.12 0.12 0.3999999999999999 0.07999999999999996 0.1599999999999999 0.4000000000000002 9.436895709313831e-18 0.2000000000000001 0.4000000000000002 0.04000000000000003 0.2000000000000001 0.3000000000000002 0.2 0.08000000000000003 0.2999999999999999 0.1599999999999999 0.12 0.2999999999999999 0.12 0.1599999999999999 0.3000000000000002 0.08000000000000004 0.2000000000000001 0.2000000000000001 0.2 0.12 0.1999999999999999 0.1599999999999999 0.1599999999999999 0.2000000000000001 0.1200000000000001 0.2000000000000001 2.220446049250313e-17 0.2 0.16 0.1 0.2 0.16 2.359223927328458e-17 0.1600000000000001 0.2000000000000001 0.1000000000000001 0.1600000000000001 0.2000000000000001 0.8999999999999997 -4.440892098500625e-18 1.665334536937735e-18 0.8999999999999997 0.03999999999999998 1.665334536937735e-18 0.8999999999999997 -4.440892098500625e-18 0.03999999999999998 0.8999999999999997 0.03999999999999998 0.03999999999999998 0.7999999999999997 0.07999999999999996 1.665334536937735e-18 0.7999999999999997 0.07999999999999996 0.03999999999999998 0.7999999999999997 -4.440892098500625e-18 0.07999999999999996 0.7999999999999997 0.03999999999999998 0.07999999999999996 0.6999999999999997 0.12 1.665334536937735e-18 0.6999999999999997 0.12 0.03999999999999998 0.6999999999999997 0.07999999999999996 0.07999999999999996 0.6999999999999997 -4.440892098500625e-18 0.12 0.6999999999999997 0.03999999999999998 0.12 0.5999999999999998 0.1599999999999999 1.665334536937735e-18 0.5999999999999998 0.1599999999999999 0.03999999999999998 0.5999999999999998 0.12 0.07999999999999996 0.5999999999999998 0.07999999999999996 0.12 0.5999999999999998 -4.440892098500625e-18 0.1599999999999999 0.5999999999999998 0.03999999999999998 0.1599999999999999 0.5000000000000001 0.2 4.996003610813205e-18 0.5000000000000001 0.2 0.04000000000000001 0.4999999999999998 0.1599999999999999 0.07999999999999996 0.4999999999999998 0.12 0.12 0.4999999999999998 0.07999999999999996 0.1599999999999999 0.5000000000000002 9.436895709313831e-18 0.2000000000000001 0.5000000000000002 0.04000000000000003 0.2000000000000001 0.4000000000000002 0.2 0.08000000000000003 0.3999999999999999 0.1599999999999999 0.12 0.3999999999999999 0.12 0.1599999999999999 0.4000000000000002 0.08000000000000004 0.2000000000000001 0.3000000000000002 0.2 0.12 0.2999999999999999 0.1599999999999999 0.1599999999999999 0.3000000000000002 0.1200000000000001 0.2000000000000001 0.2000000000000001 0.2 0.16 0.2000000000000001 0.1600000000000001 0.2000000000000001 -3.33066907387547e-17 0.1999999999999999 0.1999999999999999 0.09999999999999994 0.1999999999999999 0.1999999999999999 1 8.881784197001253e-18 2.775557561562892e-18 1 0.04000000000000001 2.775557561562892e-18 1 8.881784197001253e-18 0.04000000000000001 1 0.04000000000000001 0.04000000000000001 0.8999999999999997 0.07999999999999996 1.665334536937735e-18 0.8999999999999997 0.07999999999999996 0.03999999999999998 0.8999999999999997 -4.440892098500625e-18 0.07999999999999996 0.8999999999999997 0.03999999999999998 0.07999999999999996 0.7999999999999997 0.12 1.665334536937735e-18 0.7999999999999997 0.12 0.03999999999999998 0.7999999999999997 0.07999999999999996 0.07999999999999996 0.7999999999999997 -4.440892098500625e-18 0.12 0.7999999999999997 0.03999999999999998 0.12 0.6999999999999997 0.1599999999999999 1.665334536937735e-18 0.6999999999999997 0.1599999999999999 0.03999999999999998 0.6999999999999997 0.12 0.07999999999999996 0.6999999999999997 0.07999999999999996 0.12 0.6999999999999997 -4.440892098500625e-18 0.1599999999999999 0.6999999999999997 0.03999999999999998 0.1599999999999999 0.6000000000000002 0.2 4.996003610813205e-18 0.6000000000000002 0.2 0.04000000000000001 0.5999999999999998 0.1599999999999999 0.07999999999999996 0.5999999999999998 0.12 0.12 0.5999999999999998 0.07999999999999996 0.1599999999999999 0.6000000000000004 9.436895709313831e-18 0.2000000000000001 0.6000000000000004 0.04000000000000003 0.2000000000000001 0.5000000000000001 0.2 0.08000000000000003 0.4999999999999998 0.1599999999999999 0.12 0.4999999999999998 0.12 0.1599999999999999 0.5000000000000002 0.08000000000000004 0.2000000000000001 0.4000000000000002 0.2 0.12 0.3999999999999999 0.1599999999999999 0.1599999999999999 0.4000000000000002 0.1200000000000001 0.2000000000000001 0.3000000000000002 0.2 0.16 0.3000000000000002 0.1600000000000001 0.2000000000000001 0.1999999999999999 0.1999999999999999 0.1999999999999999 1 0.08000000000000003 2.775557561562892e-18 1 0.08000000000000003 0.04000000000000001 1 8.881784197001253e-18 0.08000000000000003 1 0.04000000000000001 0.08000000000000003 0.8999999999999997 0.12 1.665334536937735e-18 0.8999999999999997 0.12 0.03999999999999998 0.8999999999999997 0.07999999999999996 0.07999999999999996 0.8999999999999997 -4.440892098500625e-18 0.12 0.8999999999999997 0.03999999999999998 0.12 0.7999999999999997 0.1599999999999999 1.665334536937735e-18 0.7999999999999997 0.1599999999999999 0.03999999999999998 0.7999999999999997 0.12 0.07999999999999996 0.7999999999999997 0.07999999999999996 0.12 0.7999999999999997 -4.440892098500625e-18 0.1599999999999999 0.7999999999999997 0.03999999999999998 0.1599999999999999 0.7000000000000002 0.2 4.996003610813205e-18 0.7000000000000002 0.2 0.04000000000000001 0.6999999999999997 0.1599999999999999 0.07999999999999996 0.6999999999999997 0.12 0.12 0.6999999999999997 0.07999999999999996 0.1599999999999999 0.7000000000000004 9.436895709313831e-18 0.2000000000000001 0.7000000000000004 0.04000000000000003 0.2000000000000001 0.6000000000000002 0.2 0.08000000000000003 0.5999999999999998 0.1599999999999999 0.12 0.5999999999999998 0.12 0.1599999999999999 0.6000000000000004 0.08000000000000004 0.2000000000000001 0.5000000000000001 0.2 0.12 0.4999999999999998 0.1599999999999999 0.1599999999999999 0.5000000000000002 0.1200000000000001 0.2000000000000001 0.4000000000000002 0.2 0.16 0.4000000000000002 0.1600000000000001 0.2000000000000001 0.2999999999999999 0.1999999999999999 0.1999999999999999 1 0.12 2.775557561562892e-18 1 0.12 0.04000000000000001 1 0.08000000000000003 0.08000000000000003 1 8.881784197001253e-18 0.12 1 0.04000000000000001 0.12 0.8999999999999997 0.1599999999999999 1.665334536937735e-18 0.8999999999999997 0.1599999999999999 0.03999999999999998 0.8999999999999997 0.12 0.07999999999999996 0.8999999999999997 0.07999999999999996 0.12 0.8999999999999997 -4.440892098500625e-18 0.1599999999999999 0.8999999999999997 0.03999999999999998 0.1599999999999999 0.8000000000000003 0.2 4.996003610813205e-18 0.8000000000000003 0.2 0.04000000000000001 0.7999999999999997 0.1599999999999999 0.07999999999999996 0.7999999999999997 0.12 0.12 0.7999999999999997 0.07999999999999996 0.1599999999999999 0.8000000000000005 9.436895709313831e-18 0.2000000000000001 0.8000000000000005 0.04000000000000003 0.2000000000000001 0.7000000000000002 0.2 0.08000000000000003 0.6999999999999997 0.1599999999999999 0.12 0.6999999999999997 0.12 0.1599999999999999 0.7000000000000004 0.08000000000000004 0.2000000000000001 0.6000000000000002 0.2 0.12 0.5999999999999998 0.1599999999999999 0.1599999999999999 0.6000000000000004 0.1200000000000001 0.2000000000000001 0.5000000000000001 0.2 0.16 0.5000000000000002 0.1600000000000001 0.2000000000000001 0.3999999999999999 0.1999999999999999 0.1999999999999999 1 0.16 2.775557561562892e-18 1 0.16 0.04000000000000001 1 0.12 0.08000000000000003 1 0.08000000000000003 0.12 1 8.881784197001253e-18 0.16 1 0.04000000000000001 0.16 0.9000000000000004 0.2 4.996003610813205e-18 0.9000000000000004 0.2 0.04000000000000001 0.8999999999999997 0.1599999999999999 0.07999999999999996 0.8999999999999997 0.12 0.12 0.8999999999999997 0.07999999999999996 0.1599999999999999 0.9000000000000005 9.436895709313831e-18 0.2000000000000001 0.9000000000000005 0.04000000000000003 0.2000000000000001 0.8000000000000003 0.2 0.08000000000000003 0.7999999999999997 0.1599999999999999 0.12 0.7999999999999997 0.12 0.1599999999999999 0.8000000000000005 0.08000000000000004 0.2000000000000001 0.7000000000000002 0.2 0.12 0.6999999999999997 0.1599999999999999 0.1599999999999999 0.7000000000000004 0.1200000000000001 0.2000000000000001 0.6000000000000002 0.2 0.16 0.6000000000000004 0.1600000000000001 0.2000000000000001 0.4999999999999998 0.1999999999999999 0.1999999999999999 0.9999999999999997 0.2 -9.436895709313831e-18 0.9999999999999997 0.2 0.03999999999999998 1 0.16 0.08000000000000003 1 0.12 0.12 1 0.08000000000000003 0.16 0.9999999999999997 -1.27675647831893e-17 0.2 0.9999999999999997 0.03999999999999998 0.2 0.9000000000000004 0.2 0.08000000000000003 0.8999999999999997 0.1599999999999999 0.12 0.8999999999999997 0.12 0.1599999999999999 0.9000000000000005 0.08000000000000004 0.2000000000000001 0.8000000000000003 0.2 0.12 0.7999999999999997 0.1599999999999999 0.1599999999999999 0.8000000000000005 0.1200000000000001 0.2000000000000001 0.7000000000000002 0.2 0.16 0.7000000000000004 0.1600000000000001 0.2000000000000001 0.5999999999999998 0.1999999999999999 0.1999999999999999 0.9999999999999997 0.2 0.07999999999999996 1 0.16 0.12 1 0.12 0.16 0.9999999999999997 0.07999999999999996 0.2 0.9000000000000004 0.2 0.12 0.8999999999999997 0.1599999999999999 0.1599999999999999 0.9000000000000005 0.1200000000000001 0.2000000000000001 0.8000000000000003 0.2 0.16 0.8000000000000005 0.1600000000000001 0.2000000000000001 0.6999999999999997 0.1999999999999999 0.1999999999999999 0.9999999999999997 0.2 0.12 1 0.16 0.16 0.9999999999999997 0.12 0.2 0.9000000000000004 0.2 0.16 0.9000000000000005 0.1600000000000001 0.2000000000000001 0.7999999999999997 0.1999999999999999 0.1999999999999999 0.9999999999999997 0.2 0.1599999999999999 0.9999999999999997 0.1599999999999999 0.2 0.8999999999999997 0.1999999999999999 0.1999999999999999 1 0.2 0.2 </DataArray>
      </Points>
      <Cells>
        <DataArray type="Int32" Name="connectivity" format="ascii">0 1 3 2 4 5 7 6 1 8 9 3 5 10 11 7 2 3 13 12 6 7 15 14 4 5 7 6 16 17 19 18 8 20 21 9 10 22 23 11 3 9 24 13 7 11 25 15 5 10 11 7 17 26 27 19 12 13 29 28 14 15 31 30 6 7 15 14 18 19 33 32 16 17 19 18 34 35 37 36 20 38 39 21 22 40 41 23 9 21 42 24 11 23 43 25 10 22 23 11 26 44 45 27 13 24 46 29 15 25 47 31 7 11 25 15 19 27 48 33 17 26 27 19 35 49 50 37 28 29 52 51 30 31 54 53 14 15 31 30 32 33 56 55 18 19 33 32 36 37 58 57 34 35 37 36 59 60 62 61 38 63 64 39 40 65 66 41 21 39 67 42 23 41 68 43 22 40 41 23 44 69 70 45 24 42 71 46 25 43 72 47 11 23 43 25 27 45 73 48 26 44 45 27 49 74 75 50 29 46 76 52 31 47 77 54 15 25 47 31 33 48 78 56 19 27 48 33 37 50 79 58 35 49 50 37 60 80 81 62 51 52 83 82 53 54 85 84 30 31 54 53 55 56 87 86 32 33 56 55 57 58 89 88 36 37 58 57 61 62 91 90 59 60 62 61 92 93 95 94 63 96 97 64 65 98 99 66 39 64 100 67 41 66 101 68 40 65 66 41 69 102 103 70 42 67 104 71 43 68 105 72 23 41 68 43 45 70 106 73 44 69 70 45 74 107 108 75 46 71 109 76 47 72 110 77 25 43 72 47 48 73 111 78 27 45 73 48 50 75 112 79 49 74 75 50 80 113 114 81 52 76 115 83 54 77 116 85 31 47 77 54 56 78 117 87 33 48 78 56 58 79 118 89 37 50 79 58 62 81 119 91 60 80 81 62 93 120 121 95 53 54 85 84 86 87 123 122 55 56 87 86 88 89 125 124 57 58 89 88 90 91 127 126 61 62 91 90 94 95 129 128 96 130 131 97 98 132 133 99 64 97 134 100 66 99 135 101 65 98 99 66 102 136 137 103 67 100 138 104 68 101 139 105 41 66 101 68 70 103 140 106 69 102 103 70 107 141 142 108 71 104 143 109 72 105 144 110 43 68 105 72 73 106 145 111 45 70 106 73 75 108 146 112 74 107 108 75 113 147 148 114 76 109 149 115 77 110 150 116 47 72 110 77 78 111 151 117 48 73 111 78 79 112 152 118 50 75 112 79 81 114 153 119 80 113 114 81 120 154 155 121 54 77 116 85 87 117 156 123 56 78 117 87 89 118 157 125 58 79 118 89 91 119 158 127 62 81 119 91 95 121 159 129 86 87 123 122 124 125 161 160 88 89 125 124 126 127 163 162 90 91 127 126 128 129 165 164 130 166 167 131 132 168 169 133 97 131 170 134 99 133 171 135 98 132 133 99 136 172 173 137 100 134 174 138 101 135 175 139 66 99 135 101 103 137 176 140 102 136 137 103 141 177 178 142 104 138 179 143 105 139 180 144 68 101 139 105 106 140 181 145 70 103 140 106 108 142 182 146 107 141 142 108 147 183 184 148 109 143 185 149 110 144 186 150 72 105 144 110 111 145 187 151 73 106 145 111 112 146 188 152 75 108 146 112 114 148 189 153 113 147 148 114 154 190 191 155 77 110 150 116 117 151 192 156 78 111 151 117 118 152 193 157 79 112 152 118 119 153 194 158 81 114 153 119 121 155 195 159 87 117 156 123 125 157 196 161 89 118 157 125 127 158 197 163 91 119 158 127 129 159 198 165 124 125 161 160 162 163 200 199 126 127 163 162 164 165 202 201 166 203 204 167 168 205 206 169 131 167 207 170 133 169 208 171 132 168 169 133 172 209 210 173 134 170 211 174 135 171 212 175 99 133 171 135 137 173 213 176 136 172 173 137 177 214 215 178 138 174 216 179 139 175 217 180 101 135 175 139 140 176 218 181 103 137 176 140 142 178 219 182 141 177 178 142 183 220 221 184 143 179 222 185 144 180 223 186 105 139 180 144 145 181 224 187 106 140 181 145 146 182 225 188 108 142 182 146 148 184 226 189 147 183 184 148 190 227 228 191 110 144 186 150 151 187 229 192 111 145 187 151 152 188 230 193 112 146 188 152 153 189 231 194 114 148 189 153 155 191 232 195 117 151 192 156 157 193 233 196 118 152 193 157 158 194 234 197 119 153 194 158 159 195 235 198 125 157 196 161 163 197 236 200 127 158 197 163 165 198 237 202 162 163 200 199 201 202 239 238 203 240 241 204 205 242 243 206 167 204 244 207 169 206 245 208 168 205 206 169 209 246 247 210 170 207 248 211 171 208 249 212 133 169 208 171 173 210 250 213 172 209 210 173 214 251 252 215 174 211 253 216 175 212 254 217 135 171 212 175 176 213 255 218 137 173 213 176 178 215 256 219 177 214 215 178 220 257 258 221 179 216 259 222 180 217 260 223 139 175 217 180 181 218 261 224 140 176 218 181 182 219 262 225 142 178 219 182 184 221 263 226 183 220 221 184 227 264 265 228 144 180 223 186 187 224 266 229 145 181 224 187 188 225 267 230 146 182 225 188 189 226 268 231 148 184 226 189 191 228 269 232 151 187 229 192 193 230 270 233 152 188 230 193 194 231 271 234 153 189 231 194 195 232 272 235 157 193 233 196 197 234 273 236 158 194 234 197 198 235 274 237 163 197 236 200 202 237 275 239 204 241 276 244 206 243 277 245 205 242 243 206 246 278 279 247 207 244 280 248 208 245 281 249 169 206 245 208 210 247 282 250 209 246 247 210 251 283 284 252 211 248 285 253 212 249 286 254 171 208 249 212 213 250 287 255 173 210 250 213 215 252 288 256 214 251 252 215 257 289 290 258 216 253 291 259 217 254 292 260 175 212 254 217 218 255 293 261 176 213 255 218 219 256 294 262 178 215 256 219 221 258 295 263 220 257 258 221 264 296 297 265 180 217 260 223 224 261 298 266 181 218 261 224 225 262 299 267 182 219 262 225 226 263 300 268 184 221 263 226 228 265 301 269 187 224 266 229 230 267 302 270 188 225 267 230 231 268 303 271 189 226 268 231 232 269 304 272 193 230 270 233 234 271 305 273 194 231 271 234 235 272 306 274 197 234 273 236 237 274 307 275 244 276 308 280 245 277 309 281 206 243 277 245 247 279 310 282 246 278 279 247 283 311 312 284 248 280 313 285 249 281 314 286 208 245 281 249 250 282 315 287 210 247 282 250 252 284 316 288 251 283 284 252 289 317 318 290 253 285 319 291 254 286 320 292 212 249 286 254 255 287 321 293 213 250 287 255 256 288 322 294 215 252 288 256 258 290 323 295 257 289 290 258 296 324 325 297 217 254 292 260 261 293 326 298 218 255 293 261 262 294 327 299 219 256 294 262 263 295 328 300 221 258 295 263 265 297 329 301 224 261 298 266 267 299 330 302 225 262 299 267 268 300 331 303 226 263 300 268 269 301 332 304 230 267 302 270 271 303 333 305 231 268 303 271 272 304 334 306 234 271 305 273 274 306 335 307 280 308 336 313 281 309 337 314 245 277 309 281 282 310 338 315 247 279 310 282 284 312 339 316 283 311 312 284 317 340 341 318 285 313 342 319 286 314 343 320 249 281 314 286 287 315 344 321 250 282 315 287 288 316 345 322 252 284 316 288 290 318 346 323 289 317 318 290 324 347 348 325 254 286 320 292 293 321 349 326 255 287 321 293 294 322 350 327 256 288 322 294 295 323 351 328 258 290 323 295 297 325 352 329 261 293 326 298 299 327 353 330 262 294 327 299 300 328 354 331 263 295 328 300 301 329 355 332 267 299 330 302 303 331 356 333 268 300 331 303 304 332 357 334 271 303 333 305 306 334 358 335 313 336 359 342 314 337 360 343 281 309 337 314 315 338 361 344 282 310 338 315 316 339 362 345 284 312 339 316 318 341 363 346 317 340 341 318 347 364 365 348 286 314 343 320 321 344 366 349 287 315 344 321 322 345 367 350 288 316 345 322 323 346 368 351 290 318 346 323 325 348 369 352 293 321 349 326 327 350 370 353 294 322 350 327 328 351 371 354 295 323 351 328 329 352 372 355 299 327 353 330 331 354 373 356 300 328 354 331 332 355 374 357 303 331 356 333 334 357 375 358 314 337 360 343 344 361 376 366 315 338 361 344 345 362 377 367 316 339 362 345 346 363 378 368 318 341 363 346 348 365 379 369 321 344 366 349 350 367 380 370 322 345 367 350 351 368 381 371 323 346 368 351 352 369 382 372 327 350 370 353 354 371 383 373 328 351 371 354 355 372 384 374 331 354 373 356 357 374 385 375 344 361 376 366 367 377 386 380 345 362 377 367 368 378 387 381 346 363 378 368 369 379 388 382 350 367 380 370 371 381 389 383 351 368 381 371 372 382 390 384 354 371 383 373 374 384 391 385 367 377 386 380 381 387 392 389 368 378 387 381 382 388 393 390 371 381 389 383 384 390 394 391 381 387 392 389 390 393 395 394 </DataArray>
        <DataArray type="Int32" Name="offsets" format="ascii">8 16 24 32 40 48 56 64 72 80 88 96 104 112 120 128 136 144 152 160 168 176 184 192 200 208 216 224 232 240 248 256 264 272 280 288 296 304 312 320 328 336 344 352 360 368 376 384 392 400 408 416 424 432 440 448 456 464 472 480 488 496 504 512 520 528 536 544 552 560 568 576 584 592 600 608 616 624 632 640 648 656 664 672 680 688 696 704 712 720 728 736 744 752 760 768 776 784 792 800 808 816 824 832 840 848 856 864 872 880 888 896 904 912 920 928 936 944 952 960 968 976 984 992 1000 1008 1016 1024 1032 1040 1048 1056 1064 1072 1080 1088 1096 1104 1112 1120 1128 1136 1144 1152 1160 1168 1176 1184 1192 1200 1208 1216 1224 1232 1240 1248 1256 1264 1272 1280 1288 1296 1304 1312 1320 1328 1336 1344 1352 1360 1368 1376 1384 1392 1400 1408 1416 1424 1432 1440 1448 1456 1464 1472 1480 1488 1496 1504 1512 1520 1528 1536 1544 1552 1560 1568 1576 1584 1592 1600 1608 1616 1624 1632 1640 1648 1656 1664 1672 1680 1688 1696 1704 1712 1720 1728 1736 1744 1752 1760 1768 1776 1784 1792 1800 1808 1816 1824 1832 1840 1848 1856 1864 1872 1880 1888 1896 1904 1912 1920 1928 1936 1944 1952 1960 1968 1976 1984 1992 2000 </DataArray>
        <DataArray type="Int8" Name="types" format="ascii">72 72 72 72 72 72 72 72 72 72 72 72 72 72 72 72 72 72 72 72 72 72 72 72 72 72 72 72 72 72 72 72 72 72 72 72 72 72 72 72 72 72 72 72 72 72 72 72 72 72 72 72 72 72 72 72 72 72 72 72 72 72 72 72 72 72 72 72 72 72 72 72 72 72 72 72 72 72 72 72 72 72 72 72 72 72 72 72 72 72 72 72 72 72 72 72 72 72 72 72 72 72 72 72 72 72 72 72 72 72 72 72 72 72 72 72 72 72 72 72 72 72 72 72 72 72 72 72 72 72 72 72 72 72 72 72 72 72 72 72 72 72 72 72 72 72 72 72 72 72 72 72 72 72 72 72 72 72 72 72 72 72 72 72 72 72 72 72 72 72 72 72 72 72 72 72 72 72 72 72 72 72 72 72 72 72 72 72 72 72 72 72 72 72 72 72 72 72 72 72 72 72 72 72 72 72 72 72 72 72 72 72 72 72 72 72 72 72 72 72 72 72 72 72 72 72 72 72 72 72 72 72 72 72 72 72 72 72 72 72 72 72 72 72 72 72 72 72 72 72 </DataArray>
      </Cells>
      <CellData Scalars="Stress von Mises">
        <DataArray type="UInt8" Name="vtkGhostType" format="ascii" RangeMin="0" RangeMax="1">0 0 0 0 0 0 0 0 0 0 0 0 0 0 0 0 0 0 0 0 0 0 0 0 0 0 0 0 0 0 0 0 0 0 0 0 0 0 0 0 0 0 0 0 0 0 0 0 0 0 0 0 0 0 0 0 0 0 0 0 0 0 0 0 0 0 0 0 0 0 0 0 0 0 0 0 0 0 0 0 0 0 0 0 0 0 0 0 0 0 0 0 0 0 0 0 0 0 0 0 0 0 0 0 0 0 0 0 0 0 0 0 0 0 0 0 0 0 0 0 0 0 0 0 0 0 0 0 0 0 0 0 0 0 0 0 0 0 0 0 0 0 0 0 0 0 0 0 0 0 0 0 0 0 0 0 0 0 0 0 0 0 0 0 0 0 0 0 0 0 0 0 0 0 0 0 0 0 0 0 0 0 0 0 0 0 0 0 0 0 0 0 0 0 0 0 0 0 0 0 0 0 0 0 0 0 0 0 0 0 0 0 0 0 0 0 0 0 0 0 0 0 0 0 0 0 0 0 0 0 0 0 0 0 0 0 0 0 0 0 0 0 0 0 0 0 0 0 0 0 </DataArray>
        <DataArray type="Int64" IdType="1" Name="vtkOriginalCellIds" format="ascii" RangeMin="0" RangeMax="249">0 1 2 3 4 5 6 7 8 9 10 11 12 13 14 15 16 17 18 19 20 21 22 23 24 25 26 27 28 29 30 31 32 33 34 35 36 37 38 39 40 41 42 43 44 45 46 47 48 49 50 51 52 53 54 55 56 57 58 59 60 61 62 63 64 65 66 67 68 69 70 71 72 73 74 75 76 77 78 79 80 81 82 83 84 85 86 87 88 89 90 91 92 93 94 95 96 97 98 99 100 101 102 103 104 105 106 107 108 109 110 111 112 113 114 115 116 117 118 119 120 121 122 123 124 125 126 127 128 129 130 131 132 133 134 135 136 137 138 139 140 141 142 143 144 145 146 147 148 149 150 151 152 153 154 155 156 157 158 159 160 161 162 163 164 165 166 167 168 169 170 171 172 173 174 175 176 177 178 179 180 181 182 183 184 185 186 187 188 189 190 191 192 193 194 195 196 197 198 199 200 201 202 203 204 205 206 207 208 209 210 211 212 213 214 215 216 217 218 219 220 221 222 223 224 225 226 227 228 229 230 231 232 233 234 235 236 237 238 239 240 241 242 243 244 245 246 247 248 249 </DataArray>
        <DataArray type="Float64" Name="Stress von Mises" format="ascii">0.2694324055750907 0.2576148296664458 0.2649927490142191 0.1331746832438329 0.1974322715385485 0.2618126792523687 0.1437238631552938 0.264296695438438 0.1355445234813069 0.04284347878886853 0.1506203046165347 0.1981599361346079 0.1120703884948573 0.2612040053017378 0.146928753108526 0.07266777066101848 0.2649927490144008 0.136541751090682 0.0593961982562374 0.1331746832441885 0.1082925937855042 0.1495855843473178 0.08864891529692712 0.1989940081421279 0.1101398425041364 0.06303337898747075 0.2618126792525574 0.1473513562328108 0.07351247710424821 0.1437238631556397 0.2694324055754646 0.1355445234814751 0.06374251343623259 0.1355445234814712 0.2694324055754658 0.07352996464756992 0.1077266630350507 0.0670725644336003 0.1493267235098726 0.08582557247861911 0.05490453192861549 0.1981599361347589 0.1100557349789818 0.0573692950447187 0.1120703884951248 0.2576148296668201 0.1469287531087074 0.07430602206979504 0.1469287531087023 0.2576148296668208 0.1331746832441929 0.05939619825625247 0.1365417510906836 0.2649927490143999 0.04562862233713744 0.07293902156699975 0.0489715305996733 0.1075797600912107 0.06473741464728916 0.04656548136976506 0.149585584347442 0.08499216296062864 0.04976911924801031 0.08864891529713306 0.1974322715388534 0.1101398425042774 0.05582459074891652 0.1101398425042742 0.1974322715388516 0.1437238631556524 0.07351247710426505 0.1473513562328121 0.2618126792525587 0.04284347878890184 0.1355445234813136 0.2642966954384394 0.0246816515730661 0.04504764402834102 0.03398509410968913 0.07283104864707067 0.04679452497036693 0.0380090896728734 0.1077266630351393 0.06406712476866699 0.04246433196349158 0.06707256443376414 0.150620304616782 0.08582557247873231 0.04807914135033161 0.08582557247872453 0.1506203046167783 0.1120703884951398 0.05736929504473262 0.1100557349789845 0.1981599361347599 0.07266777066105609 0.1469287531085339 0.2612040053017399 0.1331746832438406 0.264992749014223 0.01051031381198669 0.02411470939740148 0.02184203364641914 0.04492666843217315 0.03206605363800618 0.02959054830336337 0.0729390215670586 0.04618966143632744 0.03463973568853037 0.04897153059977744 0.10829259378569 0.06473741464737512 0.04114728961553388 0.06473741464737635 0.1082925937856921 0.08864891529715087 0.04976911924802592 0.08499216296062838 0.1495855843474401 0.06303337898750469 0.1101398425041423 0.1989940081421304 0.1437238631553097 0.2618126792523714 0.2694324055750925 0.002600443816968694 0.01004348062559338 0.01204554601297303 0.02400189508695747 0.02030139493425571 0.02110168904105206 0.0450476440283846 0.03152084056289449 0.0269657710317151 0.0339850941097592 0.07352996464769677 0.04679452497041845 0.03356633974431767 0.04679452497042463 0.07352996464770341 0.06707256443377661 0.04246433196351236 0.06406712476867331 0.1077266630351464 0.05490453192865286 0.08582557247862532 0.1493267235098731 0.1120703884948712 0.1981599361346117 0.2576148296664495 0.00241978235522618 0.004155254844231362 0.009958010128646879 0.01102247580313023 0.01272071743627683 0.02411470939742387 0.01986191347123397 0.01923674276517649 0.02184203364644018 0.04562862233722145 0.0320660536380379 0.02612669516685027 0.03206605363804643 0.04562862233722827 0.04897153059977753 0.03463973568852621 0.04618966143633502 0.07293902156706727 0.04656548136980668 0.0647374146473032 0.107579760091216 0.08864891529694324 0.1495855843473203 0.1974322715385529 0.0023979496938244 0.00371131162109615 0.004755942526346386 0.01004348062559475 0.01072388310562014 0.01158432204698369 0.01204554601299952 0.02468165157311083 0.02030139493427781 0.01864090287207979 0.02030139493427537 0.02468165157311104 0.03398509410974655 0.02696577103171584 0.03152084056289547 0.04504764402838966 0.03800908967287465 0.04679452497037173 0.07283104864707148 0.06707256443363568 0.1077266630350516 0.1506203046165389 0.002419782355233733 0.003581121011260228 0.004247816817407284 0.004155254844220952 0.01051031381199895 0.01102247580311698 0.01121592497632341 0.01102247580314025 0.01051031381200918 0.02184203364644799 0.01923674276518052 0.01986191347124311 0.02411470939742325 0.02959054830336261 0.03206605363801397 0.04492666843217867 0.04897153059967877 0.07293902156699787 0.1082925937855097 0.00260044381696879 0.003711311621095151 0.004089144122044909 0.003711311621092765 0.002600443816957817 0.01204554601296967 0.011584322046975 0.01072388310561684 0.01004348062560372 0.02110168904105497 0.02030139493426072 0.02400189508695913 0.03398509410969985 0.04504764402834575 0.0735299646475706 0.004155254844222986 0.004247816817407457 0.003581121011266065 0.00241978235522454 0.01272071743625449 0.01102247580311944 0.009958010128645878 0.02184203364641955 0.0241147093974036 0.04562862233714402 0.004755942526350514 0.003711311621095887 0.002397949693831454 0.01204554601296244 0.01004348062558762 0.02468165157306815 0.004155254844233265 0.002419782355231481 0.01051031381198147 0.00260044381697036 </DataArray>
      </CellData>
      <PointData Vectors="Deformation">
        <DataArray type="Int64" IdType="1" Name="vtkOriginalPointIds" format="ascii" RangeMin="0" RangeMax="395">0 1 2 3 4 5 6 7 8 9 10 11 12 13 14 15 16 17 18 19 20 21 22 23 24 25 26 27 28 29 30 31 32 33 34 35 36 37 38 39 40 41 42 43 44 45 46 47 48 49 50 51 52 53 54 55 56 57 58 59 60 61 62 63 64 65 66 67 68 69 70 71 72 73 74 75 76 77 78 79 80 81 82 83 84 85 86 87 88 89 90 91 92 93 94 95 96 97 98 99 100 101 102 103 104 105 106 107 108 109 110 111 112 113 114 115 116 117 118 119 120 121 122 123 124 125 126 127 128 129 130 131 132 133 134 135 136 137 138 139 140 141 142 143 144 145 146 147 148 149 150 151 152 153 154 155 156 157 158 159 160 161 162 163 164 165 166 167 168 169 170 171 172 173 174 175 176 177 178 179 180 181 182 183 184 185 186 187 188 189 190 191 192 193 194 195 196 197 198 199 200 201 202 203 204 205 206 207 208 209 210 211 212 213 214 215 216 217 218 219 220 221 222 223 224 225 226 227 228 229 230 231 232 233 234 235 236 237 238 239 240 241 242 243 244 245 246 247 248 249 250 251 252 253 254 255 256 257 258 259 260 261 262 263 264 265 266 267 268 269 270 271 272 273 274 275 276 277 278 279 280 281 282 283 284 285 286 287 288 289 290 291 292 293 294 295 296 297 298 299 300 301 302 303 304 305 306 307 308 309 310 311 312 313 314 315 316 317 318 319 320 321 322 323 324 325 326 327 328 329 330 331 332 333 334 335 336 337 338 339 340 341 342 343 344 345 346 347 348 349 350 351 352 353 354 355 356 357 358 359 360 361 362 363 364 365 366 367 368 369 370 371 372 373 374 375 376 377 378 379 380 381 382 383 384 385 386 387 388 389 390 391 392 393 394 395 </DataArray>
        <DataArray type="UInt8" Name="vtkGhostType" format="ascii" RangeMin="0" RangeMax="0">0 0 0 0 0 0 0 0 0 0 0 0 0 0 0 0 0 0 0 0 0 0 0 0 0 0 0 0 0 0 0 0 0 0 0 0 0 0 0 0 0 0 0 0 0 0 0 0 0 0 0 0 0 0 0 0 0 0 0 0 0 0 0 0 0 0 0 0 0 0 0 0 0 0 0 0 0 0 0 0 0 0 0 0 0 0 0 0 0 0 0 0 0 0 0 0 0 0 0 0 0 0 0 0 0 0 0 0 0 0 0 0 0 0 0 0 0 0 0 0 0 0 0 0 0 0 0 0 0 0 0 0 0 0 0 0 0 0 0 0 0 0 0 0 0 0 0 0 0 0 0 0 0 0 0 0 0 0 0 0 0 0 0 0 0 0 0 0 0 0 0 0 0 0 0 0 0 0 0 0 0 0 0 0 0 0 0 0 0 0 0 0 0 0 0 0 0 0 0 0 0 0 0 0 0 0 0 0 0 0 0 0 0 0 0 0 0 0 0 0 0 0 0 0 0 0 0 0 0 0 0 0 0 0 0 0 0 0 0 0 0 0 0 0 0 0 0 0 0 0 0 0 0 0 0 0 0 0 0 0 0 0 0 0 0 0 0 0 0 0 0 0 0 0 0 0 0 0 0 0 0 0 0 0 0 0 0 0 0 0 0 0 0 0 0 0 0 0 0 0 0 0 0 0 0 0 0 0 0 0 0 0 0 0 0 0 0 0 0 0 0 0 0 0 0 0 0 0 0 0 0 0 0 0 0 0 0 0 0 0 0 0 0 0 0 0 0 0 0 0 0 0 0 0 0 0 0 0 0 0 0 0 0 0 0 0 0 0 0 0 0 0 0 0 0 0 0 0 0 0 0 0 0 0 0 0 0 0 0 0 0 0 0 0 0 0 </DataArray>
        <DataArray type="Float64" Name="Deformation" format="ascii" NumberOfComponents="3">0 0 0 -0.0147667014393185 -0.003994104836327242 -0.01065374535603643 0 0 0 -0.01439378247657465 -0.002208566255611498 -0.01184058143218099 0 0 0 -0.008278907294776634 -0.002392132184427701 -0.00914560374485072 0 0 0 -0.0079490756539337 -0.001340898828065639 -0.0102836166811356 -0.02660605079803878 -0.003078833711066925 -0.03353327506294123 -0.02680763122190607 -0.001916218548808867 -0.0345458279057867 -0.01556516131067583 -0.001863245819411943 -0.03263848664104705 -0.0157377554424646 -0.001160908588025675 -0.03363230388117128 0 0 0 -0.01441832166146257 -0.00070113717241417 -0.01236213798263214 0 0 0 -0.007897817408713021 -0.0004295436545322984 -0.01075235024129365 0 0 0 -0.002678895817405553 -0.0008025282797668614 -0.008465144269241604 0 0 0 -0.002569137080683392 -0.0004493679756637038 -0.009592226317303231 -0.03624549647964655 -0.002351767291510536 -0.06757966819495236 -0.03638135428927972 -0.001399819409663959 -0.0683256793683942 -0.02135018609841867 -0.001402765185148779 -0.06681399404902508 -0.02147141238440962 -0.0008359680932130102 -0.06757003116505116 -0.0267636340376048 -0.000643308883258245 -0.0350519436150436 -0.01573520518231326 -0.0003905825038544872 -0.03414124877550564 -0.005111010362129329 -0.0006230868733708982 -0.0321336513499433 -0.005166717617271844 -0.0003896955581551008 -0.0331206185234147 0 0 0 -0.01441832166146652 0.0007011371724224807 -0.01236213798263371 0 0 0 -0.007897817408716673 0.0004295436545430898 -0.01075235024129474 0 0 0 -0.002546311819915411 -0.0001442552396939978 -0.01004595527891604 0 0 0 0.002678895817425549 0.0008025282797828768 -0.00846514426924262 0 0 0 0.002569137080694538 0.0004493679756774327 -0.00959222631730384 -0.04348581680439267 -0.001717487387037667 -0.1096312941628631 -0.04359978182591925 -0.0010330974190498 -0.1101837241482882 -0.02576035548432358 -0.001031937686667729 -0.1090817116675537 -0.02585864565915826 -0.0006193557798122151 -0.1096343077701492 -0.03642299524001252 -0.0004692624070903202 -0.06870347950544879 -0.02152764833679383 -0.0002802314856234844 -0.06794679378228627 -0.007061181630433871 -0.0004682051337531616 -0.06644120659022462 -0.007104394486650374 -0.0002779998892146088 -0.06719971277712028 -0.02676363403761229 0.0006433088832968898 -0.03505194361504532 -0.01573520518232073 0.0003905825038962872 -0.03414124877550705 -0.00516690430100927 -0.0001309054187440194 -0.0336190557656822 0.005111010362167613 0.0006230868734182078 -0.03213365134994424 0.005166717617294512 0.0003896955582010083 -0.03312061852341529 0 0 0 -0.01439378247658667 0.002208566255620849 -0.01184058143218565 0 0 0 -0.007949075653944851 0.001340898828077433 -0.01028361668113876 0 0 0 -0.002546311819919006 0.0001442552397062791 -0.01004595527891664 0 0 0 0.002546311819919079 0.0001442552397067015 -0.01004595527891624 0 0 0 0.008278907294796585 0.002392132184442947 -0.009145603744853898 0 0 0 0.007949075653944931 0.001340898828078672 -0.01028361668113752 -0.04867084322614786 -0.001199436771634202 -0.1575626620473422 -0.04876489886713192 -0.0007204849266931203 -0.1579462398719027 -0.02892602126588857 -0.0007202312728002669 -0.1571753179558858 -0.02900842307921055 -0.0004319499291331886 -0.157561699922916 -0.0436189106142443 -0.0003436102773315523 -0.1104601008166138 -0.02589311549520924 -0.0002057465960926584 -0.1099136420038004 -0.008532998125276125 -0.0003437980545735848 -0.1087954834141527 -0.008566868540059393 -0.0002062953572112878 -0.1093487540728419 -0.03642299524002303 0.0004692624071758833 -0.06870347950545076 -0.02152764833680429 0.000280231485712751 -0.06794679378228792 -0.007128100281772433 -9.333213837084596e-05 -0.06757960147228773 0.007061181630487286 0.0004682051338486264 -0.06644120659022536 0.007104394486682078 0.000277999889308838 -0.0671997127771207 -0.0268076312219287 0.001916218548848245 -0.0345458279057921 -0.01573775544248713 0.00116090858806825 -0.03363230388117559 -0.005166904301016695 0.0001309054187882727 -0.03361905576568324 0.005166904301016823 0.000130905418789131 -0.03361905576568234 0.01556516131071418 0.001863245819458494 -0.0326384866410499 0.01573775544248728 0.001160908588070804 -0.03363230388117298 0 0 0 -0.01476670143933895 0.003994104836338767 -0.01065374535604415 0 0 0 -0.008278907294796157 0.002392132184441702 -0.009145603744855955 0 0 0 -0.002569137080694441 0.0004493679756769998 -0.009592226317305101 0 0 0 0.00254631181991548 -0.0001442552396935956 -0.01004595527891642 0 0 0 0.007897817408716713 0.000429543654544336 -0.01075235024129432 0 0 0 0.01476670143933902 0.003994104836340794 -0.01065374535604212 0 0 0 0.01439378247658637 0.002208566255622898 -0.01184058143218443 -0.05215398730006551 -0.0007708325508286903 -0.2094895324182708 -0.05222965376039621 -0.0004641807013842514 -0.2097362897909271 -0.03107120259291365 -0.0004645653867113956 -0.2092389106594785 -0.03113713508737363 -0.0002784435613284555 -0.2094882047032622 -0.04878171715948773 -0.0002409577451631557 -0.1581402899830534 -0.02903755555504088 -0.0001442549240671807 -0.157756524257973 -0.009599209684173139 -0.0002407203012506707 -0.1569752314749975 -0.009627718588005827 -0.0001440780583249059 -0.1573628908066176 -0.04361891061425726 0.0003436102774773545 -0.1104601008166161 -0.02589311549522211 0.0002057465962428267 -0.1099136420038024 -0.008581347663515029 -6.844517272832843e-05 -0.1096290718556379 0.008532998125341496 0.0003437980547306769 -0.1087954834141533 0.008566868540098291 0.0002062953573674592 -0.1093487540728422 -0.03638135428931132 0.001399819409750032 -0.06832567936839996 -0.02147141238444107 0.0008359680933029093 -0.06757003116505603 -0.007128100281782879 9.333213846326954e-05 -0.06757960147228924 0.007128100281783067 9.333213846452414e-05 -0.067579601472288 0.02135018609847208 0.001402765185243681 -0.06681399404902735 0.02147141238444127 0.0008359680933066948 -0.06757003116505243 -0.02660605079807672 0.003078833711107652 -0.03353327506295009 -0.01556516131071369 0.001863245819455911 -0.03263848664105413 -0.005166717617294338 0.0003896955582001313 -0.03312061852341787 0.005166904301009415 -0.0001309054187431817 -0.03361905576568309 0.01573520518232082 0.0003905825038988262 -0.03414124877550613 0.02660605079807691 0.003078833711111869 -0.03353327506294593 0.02680763122192854 0.001916218548852475 -0.03454582790578944 0 0 0 -0.002678895817425315 0.0008025282797824325 -0.008465144269244733 0 0 0 0.00256913708068343 -0.000449367975663314 -0.009592226317304496 0 0 0 0.007897817408713115 -0.0004295436545310579 -0.01075235024129408 0 0 0 0.01441832166146642 0.0007011371724245761 -0.01236213798263329 -0.05427491422399183 -0.0004379217049870395 -0.2638827642119921 -0.0543316891275902 -0.0002644122147591966 -0.2640225674899471 -0.03239888719824674 -0.0002654352701648316 -0.2637375093142492 -0.03244843168412201 -0.0001587973194090213 -0.2638802544687875 -0.05224321480096568 -0.0001551389573959966 -0.2098616986496491 -0.031160720270938 -9.279669252194578e-05 -0.2096149550234553 -0.01032234171846487 -0.0001552137341737773 -0.2091061367907078 -0.0103451952452901 -9.292750952340563e-05 -0.2093570377178364 -0.04878171715950245 0.0002409577453798387 -0.1581402899830556 -0.02903755555505557 0.0001442549242886534 -0.1577565242579753 -0.009640102535514925 -4.80961197056831e-05 -0.1575583372268428 0.009599209684247838 0.0002407203014796838 -0.156975231474998 0.009627718588050465 0.0001440780585533023 -0.1573628908066182 -0.04359978182595824 0.001033097419196107 -0.110183724148295 -0.02585864565919701 0.0006193557799627989 -0.1096343077701553 -0.008581347663527871 6.844517288237571e-05 -0.1096290718556396 0.00858134766352809 6.844517288402308e-05 -0.109629071855638 0.02576035548438893 0.001031937686824326 -0.1090817116675555 0.02585864565919716 0.0006193557799678822 -0.1096343077701503 -0.03624549647969957 0.002351767291597795 -0.06757966819496265 -0.02135018609847158 0.001402765185239897 -0.06681399404903367 -0.007104394486681873 0.0002779998893076695 -0.0671997127771243 0.007128100281772613 -9.333213836954943e-05 -0.06757960147228904 0.02152764833680447 0.0002802314857165415 -0.06794679378228687 0.03624549647969978 0.002351767291604244 -0.06757966819495619 0.03638135428931123 0.001399819409756445 -0.0683256793683964 -0.00511101036216732 0.0006230868734173115 -0.03213365134994844 0.005166717617271942 -0.0003896955581542921 -0.03312061852341724 0.01573520518231342 -0.0003905825038519625 -0.03414124877550646 0.0267636340376123 0.0006433088833011086 -0.03505194361504447 0 0 0 0.002678895817405471 -0.0008025282797664827 -0.008465144269243722 0 0 0 0.007949075653933754 -0.001340898828064423 -0.01028361668113685 0 0 0 0.01441832166146278 -0.0007011371724120801 -0.01236213798263257 -0.05537429214756154 -0.0001999317838267361 -0.3195494221475041 -0.05541158234075377 -0.0001220660943891007 -0.3196128680612983 -0.03311452806361787 -0.0001235155994576393 -0.319479220169927 -0.03314707523854271 -7.359887116436188e-05 -0.3195459780918389 -0.0543417924348271 -8.867574708068155e-05 -0.2640948819705675 -0.0324660216922023 -5.294356961933795e-05 -0.2639537729033247 -0.01077363137692402 -8.899770471377685e-05 -0.2636575998692476 -0.0107907709042853 -5.313157790996224e-05 -0.2638022197465118 -0.05224321480098165 0.0001551389576921447 -0.2098616986496515 -0.03116072027095389 9.279669282299957e-05 -0.2096149550234576 -0.0103551546376775 -3.092549082218337e-05 -0.2094844336885729 0.01032234171854631 0.0001552137344822995 -0.2091061367907082 0.01034519524533889 9.292750983146199e-05 -0.2093570377178364 -0.04876489886717624 0.0007204849269099463 -0.1579462398719102 -0.02900842307925472 0.000431949929355264 -0.1575616999229231 -0.009640102535529625 4.809611993152444e-05 -0.1575583372268453 0.009640102535529977 4.809611993375397e-05 -0.1575583372268428 0.02892602126596324 0.0007202312730290191 -0.157175317955888 0.02900842307925507 0.0004319499293612212 -0.1575616999229175 -0.04348581680445795 0.001717487387184888 -0.1096312941628743 -0.02576035548438846 0.001031937686819231 -0.1090817116675637 -0.00856686854009811 0.0002062953573657761 -0.1093487540728472 0.008581347663515265 -6.844517272667735e-05 -0.1096290718556396 0.0258931154952223 0.0002057465962478636 -0.1099136420038007 0.04348581680445814 0.001717487387193329 -0.1096312941628661 0.04359978182595827 0.001033097419204537 -0.11018372414829 -0.007061181630486992 0.0004682051338474523 -0.06644120659023162 0.007104394486650529 -0.0002779998892133073 -0.06719971277712394 0.0215276483367941 -0.0002802314856196936 -0.06794679378228764 0.03642299524002312 0.0004692624071821896 -0.06870347950544967 0.005111010362129315 -0.0006230868733701063 -0.03213365134994752 0.01573775544246474 -0.001160908588023165 -0.03363230388117382 0.0267636340376051 -0.0006433088832540318 -0.03505194361504441 0 0 0 0.008278907294776339 -0.002392132184426501 -0.009145603744852812 0 0 0 0.01439378247657508 -0.002208566255609456 -0.01184058143218224 -0.05579017705125057 -6.14049040992909e-05 -0.3756326330196399 -0.05580940792960137 -3.911068201105249e-05 -0.3756517979680604 -0.03341971499915104 -3.994265348227521e-05 -0.3756105379192186 -0.03343647322670477 -2.386332956277743e-05 -0.3756321407832671 -0.05541814705864999 -4.128985720941314e-05 -0.319647277773098 -0.03315864027452293 -2.453970044046911e-05 -0.3195816358209759 -0.0110211590918747 -4.169047046538338e-05 -0.3194361821095131 -0.01103241813192553 -2.479997312874955e-05 -0.3195051675600125 -0.05434179243484387 8.867574746214609e-05 -0.2640948819705702 -0.03246602169221911 5.294357000551604e-05 -0.2639537729033271 -0.01079822802610208 -1.766931538214547e-05 -0.2638763157968267 0.01077363137700985 8.899770510701026e-05 -0.263657599869248 0.01079077090433684 5.313157830314865e-05 -0.2638022197465125 -0.05222965376044413 0.0004641807016805402 -0.2097362897909344 -0.03113713508742178 0.0002784435616297765 -0.2094882047032693 -0.01035515463769351 3.092549112795404e-05 -0.2094844336885749 0.01035515463769417 3.092549113002354e-05 -0.2094844336885733 0.03107120259299506 0.0004645653870196917 -0.2092389106594796 0.03113713508742239 0.0002784435616363339 -0.2094882047032628 -0.04867084322622204 0.00119943677185158 -0.1575626620473562 -0.02892602126596273 0.0007202312730230421 -0.1571753179558988 -0.009627718588050074 0.0001440780585512185 -0.1573628908066245 0.009640102535515298 -4.80961197035734e-05 -0.1575583372268451 0.02903755555505601 0.0001442549242948489 -0.1577565242579736 0.04867084322622237 0.001199436771861858 -0.1575626620473457 0.04876489886717638 0.0007204849269202224 -0.1579462398719049 -0.008532998125341204 0.0003437980547289733 -0.1087954834141616 0.008566868540059544 -0.0002062953572095896 -0.1093487540728469 0.02589311549520957 -0.0002057465960876093 -0.1099136420038021 0.04361891061425747 0.0003436102774857788 -0.1104601008166144 0.007061181630433889 -0.0004682051337518885 -0.06644120659023067 0.02147141238440982 -0.000835968093209293 -0.06757003116505468 0.03642299524001288 -0.000469262407084127 -0.06870347950545015 0.01556516131067563 -0.001863245819409456 -0.03263848664105126 0.02680763122190648 -0.001916218548804677 -0.03454582790578926 0 0 0 0.01476670143931856 -0.003994104836325232 -0.01065374535603849 -0.05587497068643822 -7.074395052133637e-06 -0.4316440974167159 -0.05588622666566476 -5.533980581916506e-06 -0.4316499282024439 -0.03350042440437899 -2.473842569822588e-06 -0.4316333222803692 -0.03351004714052065 -1.520936245547846e-06 -0.4316397683535941 -0.05581418940545275 -1.360837927502442e-05 -0.3756636048077421 -0.03344312834051626 -8.008628581339572e-06 -0.375644778850686 -0.01113068460581982 -1.377910809070191e-05 -0.3755945962516556 -0.01113661318834643 -8.178871375097402e-06 -0.3756177735388495 -0.0554181470586673 4.128985767888618e-05 -0.3196472777731003 -0.03315864027454034 2.453970091453495e-05 -0.3195816358209784 -0.01103730840688848 -8.215868597949675e-06 -0.3195413899084604 0.01102115909196279 4.169047094630627e-05 -0.3194361821095132 0.01103241813197852 2.479997360942235e-05 -0.3195051675600118 -0.05433168912764084 0.0002644122151407092 -0.2640225674899541 -0.03244843168417274 0.0001587973197952632 -0.2638802544687939 -0.01079822802611903 1.766931577297368e-05 -0.2638763157968286 0.01079822802611972 1.766931577528711e-05 -0.2638763157968261 0.03239888719833246 0.0002654352705577869 -0.2637375093142504 0.03244843168417337 0.0001587973198017216 -0.2638802544687885 -0.05215398730014605 0.0007708325511253272 -0.2094895324182836 -0.03107120259299447 0.0004645653870132064 -0.2092389106594904 -0.01034519524533833 9.292750982937284e-05 -0.2093570377178432 0.01035515463767812 -3.092549081996009e-05 -0.209484433688575 0.03116072027095448 9.279669282952968e-05 -0.2096149550234556 0.05215398730014674 0.0007708325511364436 -0.2094895324182726 0.05222965376044474 0.0004641807016915466 -0.209736289790928 -0.009599209684247392 0.0002407203014777886 -0.1569752314750088 0.009627718588006194 -0.000144078058322879 -0.1573628908066245 0.02903755555504135 -0.0001442549240609896 -0.1577565242579753 0.04878171715950275 0.0002409577453899946 -0.1581402899830545 0.008532998125276135 -0.0003437980545718645 -0.1087954834141611 0.02585864565915855 -0.000619355779807143 -0.1096343077701542 0.04361891061424487 -0.0003436102773231367 -0.1104601008166155 0.02135018609841858 -0.001402765185145102 -0.0668139940490312 0.03638135428928028 -0.001399819409657782 -0.06832567936839772 0.02660605079803889 -0.003078833711062746 -0.03353327506294546 -0.05589121990361437 -2.31652547006789e-06 -0.4316549135039184 -0.03351475051809256 -6.165860807271118e-07 -0.431645543315556 -0.01116173569913269 1.062514103425877e-07 -0.4316205253747034 -0.01116540387909705 -1.399393302504e-07 -0.4316267907768999 -0.05581418940547021 1.360837983435837e-05 -0.3756636048077436 -0.03344312834053376 8.008629144763791e-06 -0.3756447788506874 -0.01113936803413744 -2.698800589103601e-06 -0.3756306327415004 0.011130684605909 1.37791086601119e-05 -0.3755945962516558 0.01113661318840013 8.178871944683913e-06 -0.3756177735388502 -0.05541158234080576 0.0001220660948588452 -0.319612868061305 -0.03314707523859488 7.359887163864517e-05 -0.3195459780918461 -0.01103730840690585 8.215869076620302e-06 -0.319541389908463 0.01103730840690656 8.215869078630457e-06 -0.319541389908461 0.03311452806370597 0.0001235155999383066 -0.3194792201699272 0.03314707523859567 7.359887164499442e-05 -0.3195459780918389 -0.05427491422407681 0.0004379217053687178 -0.2638827642120038 -0.03239888719833178 0.0002654352705514031 -0.2637375093142609 -0.01079077090433611 5.313157830100024e-05 -0.2638022197465186 0.01079822802610285 -1.766931537999224e-05 -0.2638763157968286 0.03246602169221982 5.29435700121137e-05 -0.2639537729033249 0.05427491422407744 0.0004379217053797002 -0.2638827642119937 0.05433168912764146 0.0002644122151515115 -0.2640225674899486 -0.01032234171854576 0.0001552137344801803 -0.209106136790719 0.01034519524529068 -9.292750952109936e-05 -0.2093570377178429 0.03116072027093849 -9.279669251542179e-05 -0.2096149550234578 0.05224321480098221 0.0001551389577031108 -0.2098616986496494 0.009599209684173389 -0.000240720301248611 -0.1569752314750086 0.02900842307921083 -0.0004319499291271038 -0.157561699922923 0.04878171715948825 -0.0002409577451528137 -0.1581402899830557 0.02576035548432344 -0.001031937686662655 -0.109081711667562 0.0435997818259201 -0.001033097419041443 -0.1101837241482932 0.03624549647964674 -0.002351767291504328 -0.06757966819495853 -0.05589121990363195 2.316526118308677e-06 -0.4316549135039202 -0.03351475051811015 6.165867325167583e-07 -0.4316455433155578 -0.01116726548214763 -1.004282977928364e-07 -0.4316333033782213 0.01116173569922224 -1.062507522750702e-07 -0.4316205253747032 0.01116540387915121 1.399399879695634e-07 -0.431626790776899 -0.05580940792965387 3.911068256997046e-05 -0.3756517979680666 -0.03343647322675754 2.386333012621322e-05 -0.3756321407832721 -0.01113936803415503 2.698801156450679e-06 -0.3756306327415027 0.01113936803415591 2.698801158607487e-06 -0.3756306327415 0.0334197149992401 3.994265405176704e-05 -0.3756105379192197 0.0334364732267584 2.386333013218567e-05 -0.3756321407832677 -0.05537429214764877 0.0001999317842965218 -0.319549422147516 -0.03311452806370517 0.0001235155999321403 -0.319479220169938 -0.01103241813197773 2.479997360743743e-05 -0.319505167560019 0.01103730840688919 -8.215868595695019e-06 -0.319541389908463 0.0331586402745411 2.453970092100176e-05 -0.3195816358209766 0.05537429214764968 0.0001999317843071958 -0.3195494221475049 0.0554115823408067 0.00012206609486955 -0.3196128680612987 -0.01077363137700916 8.899770510512384e-05 -0.2636575998692586 0.010790770904286 -5.313157790774579e-05 -0.2638022197465186 0.03246602169220295 -5.294356961259229e-05 -0.2639537729033268 0.0543417924348446 8.867574747289827e-05 -0.2640948819705684 0.01032234171846541 -0.0001552137341714901 -0.2091061367907185 0.03113713508737419 -0.0002784435613218874 -0.2094882047032688 0.05224321480096619 -0.0001551389573850092 -0.2098616986496514 0.02892602126588878 -0.0007202312727941646 -0.1571753179558979 0.04876489886713262 -0.0007204849266824861 -0.15794623987191 0.04348581680439323 -0.001717487387029319 -0.1096312941628714 -0.05588622666571753 5.533981230185122e-06 -0.4316499282024488 -0.03351004714057355 1.520936897498074e-06 -0.4316397683535997 -0.0111672654821652 1.004289534552971e-07 -0.4316333033782228 0.01116726548216622 1.004289553892427e-07 -0.4316333033782214 0.03350042440446823 2.473843227814834e-06 -0.4316333222803683 0.03351004714057453 1.520936903501353e-06 -0.4316397683535932 -0.05579017705133844 6.140490465811355e-05 -0.3756326330196504 -0.03341971499923924 3.994265404567516e-05 -0.3756105379192294 -0.01113661318839929 8.178871942881691e-06 -0.3756177735388553 0.01113936803413829 -2.698800586991122e-06 -0.3756306327415027 0.03344312834053466 8.008629150817614e-06 -0.375644778850686 0.05579017705133942 6.140490466859779e-05 -0.3756326330196408 0.05580940792965489 3.911068258036952e-05 -0.3756517979680614 -0.01102115909196202 4.16904709441612e-05 -0.3194361821095241 0.0110324181319263 -2.479997312644564e-05 -0.3195051675600189 0.03315864027452375 -2.453970043399846e-05 -0.3195816358209786 0.05541814705866811 4.128985768988314e-05 -0.3196472777730982 0.01077363137692473 -8.899770471144297e-05 -0.2636575998692586 0.03244843168412266 -0.0001587973194022711 -0.2638802544687943 0.05434179243482774 -8.867574706963868e-05 -0.2640948819705702 0.03107120259291415 -0.000464565386704789 -0.2092389106594894 0.05222965376039664 -0.0004641807013732972 -0.2097362897909338 0.04867084322614814 -0.001199436771623357 -0.1575626620473545 -0.05587497068652628 7.074395700309476e-06 -0.4316440974167252 -0.03350042440446729 2.473843221917927e-06 -0.431633322280378 -0.01116540387914999 1.39939986024064e-07 -0.4316267907769056 0.0111672654821485 -1.004282957514626e-07 -0.4316333033782231 0.03351475051811129 6.165867384804461e-07 -0.4316455433155562 0.0558749706865268 7.074395710032553e-06 -0.4316440974167155 0.05588622666571811 5.533981239996072e-06 -0.4316499282024425 -0.01113068460590808 1.377910865859161e-05 -0.3755945962516658 0.01113661318834736 -8.17887137293135e-06 -0.3756177735388557 0.03344312834051703 -8.008628575157534e-06 -0.3756447788506876 0.05581418940547112 1.360837984428326e-05 -0.3756636048077426 0.01102115909187556 -4.169047046304763e-05 -0.3194361821095241 0.0331470752385435 -7.359887115788092e-05 -0.3195459780918457 0.05541814705865079 -4.128985719846606e-05 -0.3196472777731005 0.03239888719824739 -0.0002654352701580587 -0.2637375093142607 0.05433168912759089 -0.0002644122147479333 -0.2640225674899538 0.05215398730006585 -0.0007708325508177513 -0.2094895324182819 -0.01116173569922103 -1.06250754350124e-07 -0.4316205253747128 0.01116540387909809 -1.399393282446135e-07 -0.4316267907769056 0.03351475051809357 -6.165860748034799e-07 -0.4316455433155581 0.05589121990363275 2.316526128242961e-06 -0.4316549135039184 0.01113068460582081 -1.377910808857391e-05 -0.3755945962516653 0.03343647322670559 -2.386332955670186e-05 -0.375632140783273 0.05581418940545355 -1.360837926502557e-05 -0.3756636048077442 0.03311452806361876 -0.0001235155994511653 -0.3194792201699378 0.05541158234075443 -0.0001220660943782802 -0.3196128680613052 0.05427491422399248 -0.0004379217049757379 -0.2638827642120035 0.01116173569913385 1.062514123691488e-07 -0.4316205253747132 0.03351004714052173 -1.52093623966008e-06 -0.4316397683536004 0.05589121990361542 -2.316525460306588e-06 -0.4316549135039207 0.03341971499915204 -3.99426534761836e-05 -0.3756105379192287 0.05580940792960221 -3.911068200096036e-05 -0.3756517979680664 0.05537429214756232 -0.0001999317838158444 -0.3195494221475155 0.03350042440438003 -2.473842563974471e-06 -0.4316333222803787 0.05588622666566576 -5.533980572233646e-06 -0.4316499282024497 0.0557901770512514 -6.140490408917719e-05 -0.3756326330196499 0.05587497068643936 -7.074395042590862e-06 -0.4316440974167258 </DataArray>
      </PointData>
    </Piece>
  </UnstructuredGrid>
</VTKFile>
